FCC crystal

5760 atoms

2 atom types

-2.573223 2.573223 xlo xhi
-66.854297 66.854297 ylo yhi
-50.424669 50.424669 zlo zhi

Atoms

1 1 -2.132309 -66.482884 -49.374155
2 1 -0.848077 -64.254408 -49.374155
3 1 -2.136991 -62.025931 -49.374155
4 1 -0.852584 -59.797455 -49.374155
5 1 -2.141276 -57.568978 -49.374155
6 1 -0.856595 -55.340501 -49.374155
7 1 -2.144953 -53.112025 -49.374155
8 1 -0.859867 -50.883548 -49.374155
9 1 -2.147738 -48.655072 -49.374155
10 1 -0.862071 -46.426595 -49.374155
11 1 -2.149255 -44.198119 -49.374155
12 1 -0.862778 -41.969642 -49.374155
13 1 -2.149011 -39.741165 -49.374155
14 1 -0.861421 -37.512689 -49.374155
15 1 -2.146357 -35.284212 -49.374155
16 1 -0.857263 -33.055736 -49.374155
17 1 -2.140461 -30.827259 -49.374155
18 1 -0.849368 -28.598783 -49.374155
19 1 -2.130280 -26.370306 -49.374155
20 1 -0.836589 -24.141830 -49.374155
21 1 -2.114571 -21.913353 -49.374155
22 1 -0.817611 -19.684876 -49.374155
23 1 -2.091993 -17.456400 -49.374155
24 1 -0.791137 -15.227923 -49.374155
25 1 -2.061397 -12.999447 -49.374155
26 1 -0.756309 -10.770970 -49.374155
27 1 -2.022393 -8.542494 -49.374155
28 1 -0.713400 -6.314017 -49.374155
29 1 -1.976107 -4.085540 -49.374155
30 1 -0.664526 -1.857064 -49.374155
31 1 -1.925662 0.371413 -49.374155
32 1 -0.613676 2.599889 -49.374155
33 1 -1.875616 4.828366 -49.374155
34 1 -0.565563 7.056842 -49.374155
35 1 -1.830381 9.285319 -49.374155
36 1 -0.523910 11.513796 -49.374155
37 1 -1.792750 13.742272 -49.374155
38 1 -0.490496 15.970749 -49.374155
39 1 -1.763547 18.199225 -49.374155
40 1 -0.465350 20.427702 -49.374155
41 1 -1.742204 22.656178 -49.374155
42 1 -0.447499 24.884655 -49.374155
43 1 -1.727509 27.113132 -49.374155
44 1 -0.435622 29.341608 -49.374155
45 1 -1.718124 31.570085 -49.374155
46 1 -0.428424 33.798561 -49.374155
47 1 -1.712835 36.027038 -49.374155
48 1 -0.424792 38.255514 -49.374155
49 1 -1.710636 40.483991 -49.374155
50 1 -0.423825 42.712468 -49.374155
51 1 -1.710725 44.940944 -49.374155
52 1 -0.424817 47.169421 -49.374155
53 1 -1.712484 49.397897 -49.374155
54 1 -0.427226 51.626374 -49.374155
55 1 -1.715441 53.854850 -49.374155
56 1 -0.430641 56.083327 -49.374155
57 1 -1.719237 58.311804 -49.374155
58 1 -0.434750 60.540280 -49.374155
59 1 -1.723601 62.768757 -49.374155
60 1 -0.439320 64.997233 -49.374155
61 1 0.440914 -66.482884 -49.374155
62 1 1.725146 -64.254408 -49.374155
63 1 0.436232 -62.025931 -49.374155
64 1 1.720640 -59.797455 -49.374155
65 1 0.431947 -57.568978 -49.374155
66 1 1.716628 -55.340501 -49.374155
67 1 0.428270 -53.112025 -49.374155
68 1 1.713357 -50.883548 -49.374155
69 1 0.425485 -48.655072 -49.374155
70 1 1.711152 -46.426595 -49.374155
71 1 0.423968 -44.198119 -49.374155
72 1 1.710445 -41.969642 -49.374155
73 1 0.424212 -39.741165 -49.374155
74 1 1.711803 -37.512689 -49.374155
75 1 0.426866 -35.284212 -49.374155
76 1 1.715960 -33.055736 -49.374155
77 1 0.432762 -30.827259 -49.374155
78 1 1.723855 -28.598783 -49.374155
79 1 0.442943 -26.370306 -49.374155
80 1 1.736634 -24.141830 -49.374155
81 1 0.458652 -21.913353 -49.374155
82 1 1.755613 -19.684876 -49.374155
83 1 0.481230 -17.456400 -49.374155
84 1 1.782086 -15.227923 -49.374155
85 1 0.511826 -12.999447 -49.374155
86 1 1.816915 -10.770970 -49.374155
87 1 0.550830 -8.542494 -49.374155
88 1 1.859823 -6.314017 -49.374155
89 1 0.597116 -4.085540 -49.374155
90 1 1.908697 -1.857064 -49.374155
91 1 0.647561 0.371413 -49.374155
92 1 1.959547 2.599889 -49.374155
93 1 0.697607 4.828366 -49.374155
94 1 2.007660 7.056842 -49.374155
95 1 0.742842 9.285319 -49.374155
96 1 2.049313 11.513796 -49.374155
97 1 0.780473 13.742272 -49.374155
98 1 2.082727 15.970749 -49.374155
99 1 0.809676 18.199225 -49.374155
100 1 2.107873 20.427702 -49.374155
101 1 0.831019 22.656178 -49.374155
102 1 2.125724 24.884655 -49.374155
103 1 0.845714 27.113132 -49.374155
104 1 2.137601 29.341608 -49.374155
105 1 0.855099 31.570085 -49.374155
106 1 2.144799 33.798561 -49.374155
107 1 0.860388 36.027038 -49.374155
108 1 2.148431 38.255514 -49.374155
109 1 0.862588 40.483991 -49.374155
110 1 2.149398 42.712468 -49.374155
111 1 0.862498 44.940944 -49.374155
112 1 2.148406 47.169421 -49.374155
113 1 0.860739 49.397897 -49.374155
114 1 2.145997 51.626374 -49.374155
115 1 0.857782 53.854850 -49.374155
116 1 2.142582 56.083327 -49.374155
117 1 0.853986 58.311804 -49.374155
118 1 2.138473 60.540280 -49.374155
119 1 0.849622 62.768757 -49.374155
120 1 2.133903 64.997233 -49.374155
121 1 -0.852332 -65.740059 -47.273127
122 1 0.431583 -63.511582 -47.273127
123 1 -0.857663 -61.283106 -47.273127
124 1 0.426397 -59.054629 -47.273127
125 1 -0.862657 -56.826153 -47.273127
126 1 0.421648 -54.597676 -47.273127
127 1 -0.867099 -52.369199 -47.273127
128 1 0.417587 -50.140723 -47.273127
129 1 -0.870695 -47.912246 -47.273127
130 1 0.414554 -45.683770 -47.273127
131 1 -0.873050 -43.455293 -47.273127
132 1 0.413010 -41.226817 -47.273127
133 1 -0.873629 -38.998340 -47.273127
134 1 0.413573 -36.769863 -47.273127
135 1 -0.871718 -34.541387 -47.273127
136 1 0.417068 -32.312910 -47.273127
137 1 -0.866369 -30.084434 -47.273127
138 1 0.424578 -27.855957 -47.273127
139 1 -0.856355 -25.627481 -47.273127
140 1 0.437480 -23.399004 -47.273127
141 1 -0.840150 -21.170527 -47.273127
142 1 0.457425 -18.942051 -47.273127
143 1 -0.816025 -16.713574 -47.273127
144 1 0.486139 -14.485098 -47.273127
145 1 -0.782392 -12.256621 -47.273127
146 1 0.524878 -10.028145 -47.273127
147 1 -0.738584 -7.799668 -47.273127
148 1 0.573415 -5.571191 -47.273127
149 1 -0.686019 -3.342715 -47.273127
150 1 0.628933 -1.114238 -47.273127
151 1 -0.628933 1.114238 -47.273127
152 1 0.686019 3.342715 -47.273127
153 1 -0.573415 5.571191 -47.273127
154 1 0.738584 7.799668 -47.273127
155 1 -0.524878 10.028145 -47.273127
156 1 0.782392 12.256621 -47.273127
157 1 -0.486139 14.485098 -47.273127
158 1 0.816025 16.713574 -47.273127
159 1 -0.457425 18.942051 -47.273127
160 1 0.840150 21.170527 -47.273127
161 1 -0.437480 23.399004 -47.273127
162 1 0.856355 25.627481 -47.273127
163 1 -0.424578 27.855957 -47.273127
164 1 0.866369 30.084434 -47.273127
165 1 -0.417068 32.312910 -47.273127
166 1 0.871718 34.541387 -47.273127
167 1 -0.413573 36.769863 -47.273127
168 1 0.873629 38.998340 -47.273127
169 1 -0.413010 41.226817 -47.273127
170 1 0.873050 43.455293 -47.273127
171 1 -0.414554 45.683770 -47.273127
172 1 0.870695 47.912246 -47.273127
173 1 -0.417587 50.140723 -47.273127
174 1 0.867099 52.369199 -47.273127
175 1 -0.421648 54.597676 -47.273127
176 1 0.862657 56.826153 -47.273127
177 1 -0.426397 59.054629 -47.273127
178 1 0.857663 61.283106 -47.273127
179 1 -0.431583 63.511582 -47.273127
180 1 0.852332 65.740059 -47.273127
181 1 1.720891 -65.740059 -47.273127
182 1 -2.141640 -63.511582 -47.273127
183 1 1.715560 -61.283106 -47.273127
184 1 -2.146826 -59.054629 -47.273127
185 1 1.710566 -56.826153 -47.273127
186 1 -2.151575 -54.597676 -47.273127
187 1 1.706124 -52.369199 -47.273127
188 1 -2.155636 -50.140723 -47.273127
189 1 1.702528 -47.912246 -47.273127
190 1 -2.158669 -45.683770 -47.273127
191 1 1.700173 -43.455293 -47.273127
192 1 -2.160213 -41.226817 -47.273127
193 1 1.699594 -38.998340 -47.273127
194 1 -2.159650 -36.769863 -47.273127
195 1 1.701505 -34.541387 -47.273127
196 1 -2.156155 -32.312910 -47.273127
197 1 1.706854 -30.084434 -47.273127
198 1 -2.148645 -27.855957 -47.273127
199 1 1.716868 -25.627481 -47.273127
200 1 -2.135743 -23.399004 -47.273127
201 1 1.733073 -21.170527 -47.273127
202 1 -2.115799 -18.942051 -47.273127
203 1 1.757198 -16.713574 -47.273127
204 1 -2.087084 -14.485098 -47.273127
205 1 1.790831 -12.256621 -47.273127
206 1 -2.048345 -10.028145 -47.273127
207 1 1.834639 -7.799668 -47.273127
208 1 -1.999809 -5.571191 -47.273127
209 1 1.887204 -3.342715 -47.273127
210 1 -1.944290 -1.114238 -47.273127
211 1 1.944290 1.114238 -47.273127
212 1 -1.887204 3.342715 -47.273127
213 1 1.999809 5.571191 -47.273127
214 1 -1.834639 7.799668 -47.273127
215 1 2.048345 10.028145 -47.273127
216 1 -1.790831 12.256621 -47.273127
217 1 2.087084 14.485098 -47.273127
218 1 -1.757198 16.713574 -47.273127
219 1 2.115799 18.942051 -47.273127
220 1 -1.733073 21.170527 -47.273127
221 1 2.135743 23.399004 -47.273127
222 1 -1.716868 25.627481 -47.273127
223 1 2.148645 27.855957 -47.273127
224 1 -1.706854 30.084434 -47.273127
225 1 2.156155 32.312910 -47.273127
226 1 -1.701505 34.541387 -47.273127
227 1 2.159650 36.769863 -47.273127
228 1 -1.699594 38.998340 -47.273127
229 1 2.160213 41.226817 -47.273127
230 1 -1.700173 43.455293 -47.273127
231 1 2.158669 45.683770 -47.273127
232 1 -1.702528 47.912246 -47.273127
233 1 2.155636 50.140723 -47.273127
234 1 -1.706124 52.369199 -47.273127
235 1 2.151575 54.597676 -47.273127
236 1 -1.710566 56.826153 -47.273127
237 1 2.146826 59.054629 -47.273127
238 1 -1.715560 61.283106 -47.273127
239 1 2.141640 63.511582 -47.273127
240 1 -1.720891 65.740059 -47.273127
241 1 0.427386 -64.997233 -45.172099
242 1 1.710955 -62.768757 -45.172099
243 1 0.421345 -60.540280 -45.172099
244 1 1.705022 -58.311804 -45.172099
245 1 0.415566 -56.083327 -45.172099
246 1 1.699452 -53.854850 -45.172099
247 1 0.410266 -51.626374 -45.172099
248 1 1.694496 -49.397897 -45.172099
249 1 0.405743 -47.169421 -45.172099
250 1 1.690508 -44.940944 -45.172099
251 1 0.402411 -42.712468 -45.172099
252 1 1.687973 -40.483991 -45.172099
253 1 0.400839 -38.255514 -45.172099
254 1 1.687559 -36.027038 -45.172099
255 1 0.401811 -33.798561 -45.172099
256 1 1.690183 -31.570085 -45.172099
257 1 0.406396 -29.341608 -45.172099
258 1 1.697088 -27.113132 -45.172099
259 1 0.416033 -24.884655 -45.172099
260 1 1.709925 -22.656178 -45.172099
261 1 0.432591 -20.427702 -45.172099
262 1 1.730771 -18.199225 -45.172099
263 1 0.458315 -15.970749 -45.172099
264 1 1.761946 -13.742272 -45.172099
265 1 0.495431 -11.513796 -45.172099
266 1 1.805311 -9.285319 -45.172099
267 1 0.545053 -7.056842 -45.172099
268 1 1.860765 -4.828366 -45.172099
269 1 0.605380 -2.599889 -45.172099
270 1 1.924459 -0.371413 -45.172099
271 1 0.670497 1.857064 -45.172099
272 1 1.988858 4.085540 -45.172099
273 1 0.732139 6.314017 -45.172099
274 1 2.046071 8.542494 -45.172099
275 1 0.783777 10.770970 -45.172099
276 1 2.091540 12.999447 -45.172099
277 1 0.822954 15.227923 -45.172099
278 1 2.124647 17.456400 -45.172099
279 1 0.850434 19.684876 -45.172099
280 1 2.147053 21.913353 -45.172099
281 1 0.868356 24.141830 -45.172099
282 1 2.161070 26.370306 -45.172099
283 1 0.879005 28.598783 -45.172099
284 1 2.168837 30.827259 -45.172099
285 1 0.884321 33.055736 -45.172099
286 1 2.172078 35.284212 -45.172099
287 1 0.885812 37.512689 -45.172099
288 1 2.172099 39.741165 -45.172099
289 1 0.884603 41.969642 -45.172099
290 1 2.169865 44.198119 -45.172099
291 1 0.881520 46.426595 -45.172099
292 1 2.166081 48.655072 -45.172099
293 1 0.877163 50.883548 -45.172099
294 1 2.161260 53.112025 -45.172099
295 1 0.871969 55.340501 -45.172099
296 1 2.155772 57.568978 -45.172099
297 1 0.866253 59.797455 -45.172099
298 1 2.149885 62.025931 -45.172099
299 1 0.860244 64.254408 -45.172099
300 1 2.143794 66.482884 -45.172099
301 1 -2.145837 -64.997233 -45.172099
302 1 -0.862268 -62.768757 -45.172099
303 1 -2.151878 -60.540280 -45.172099
304 1 -0.868201 -58.311804 -45.172099
305 1 -2.157657 -56.083327 -45.172099
306 1 -0.873771 -53.854850 -45.172099
307 1 -2.162957 -51.626374 -45.172099
308 1 -0.878727 -49.397897 -45.172099
309 1 -2.167480 -47.169421 -45.172099
310 1 -0.882715 -44.940944 -45.172099
311 1 -2.170812 -42.712468 -45.172099
312 1 -0.885250 -40.483991 -45.172099
313 1 -2.172384 -38.255514 -45.172099
314 1 -0.885664 -36.027038 -45.172099
315 1 -2.171412 -33.798561 -45.172099
316 1 -0.883040 -31.570085 -45.172099
317 1 -2.166827 -29.341608 -45.172099
318 1 -0.876135 -27.113132 -45.172099
319 1 -2.157190 -24.884655 -45.172099
320 1 -0.863298 -22.656178 -45.172099
321 1 -2.140632 -20.427702 -45.172099
322 1 -0.842452 -18.199225 -45.172099
323 1 -2.114908 -15.970749 -45.172099
324 1 -0.811277 -13.742272 -45.172099
325 1 -2.077793 -11.513796 -45.172099
326 1 -0.767912 -9.285319 -45.172099
327 1 -2.028170 -7.056842 -45.172099
328 1 -0.712458 -4.828366 -45.172099
329 1 -1.967843 -2.599889 -45.172099
330 1 -0.648765 -0.371413 -45.172099
331 1 -1.902726 1.857064 -45.172099
332 1 -0.584365 4.085540 -45.172099
333 1 -1.841084 6.314017 -45.172099
334 1 -0.527152 8.542494 -45.172099
335 1 -1.789446 10.770970 -45.172099
336 1 -0.481683 12.999447 -45.172099
337 1 -1.750270 15.227923 -45.172099
338 1 -0.448576 17.456400 -45.172099
339 1 -1.722790 19.684876 -45.172099
340 1 -0.426170 21.913353 -45.172099
341 1 -1.704867 24.141830 -45.172099
342 1 -0.412153 26.370306 -45.172099
343 1 -1.694218 28.598783 -45.172099
344 1 -0.404386 30.827259 -45.172099
345 1 -1.688902 33.055736 -45.172099
346 1 -0.401145 35.284212 -45.172099
347 1 -1.687411 37.512689 -45.172099
348 1 -0.401124 39.741165 -45.172099
349 1 -1.688620 41.969642 -45.172099
350 1 -0.403358 44.198119 -45.172099
351 1 -1.691703 46.426595 -45.172099
352 1 -0.407142 48.655072 -45.172099
353 1 -1.696060 50.883548 -45.172099
354 1 -0.411963 53.112025 -45.172099
355 1 -1.701254 55.340501 -45.172099
356 1 -0.417452 57.568978 -45.172099
357 1 -1.706970 59.797455 -45.172099
358 1 -0.423338 62.025931 -45.172099
359 1 -1.712979 64.254408 -45.172099
360 1 -0.429429 66.482884 -45.172099
361 1 -2.149567 -66.482884 -43.071071
362 1 -0.866380 -64.254408 -43.071071
363 1 -2.156410 -62.025931 -43.071071
364 1 -0.873195 -59.797455 -43.071071
365 1 -2.163162 -57.568978 -43.071071
366 1 -0.879840 -55.340501 -43.071071
367 1 -2.169646 -53.112025 -43.071071
368 1 -0.886100 -50.883548 -43.071071
369 1 -2.175609 -48.655072 -43.071071
370 1 -0.891677 -46.426595 -43.071071
371 1 -2.180695 -44.198119 -43.071071
372 1 -0.896146 -41.969642 -43.071071
373 1 -2.184398 -39.741165 -43.071071
374 1 -0.898907 -37.512689 -43.071071
375 1 -2.186006 -35.284212 -43.071071
376 1 -0.899112 -33.055736 -43.071071
377 1 -2.184511 -30.827259 -43.071071
378 1 -0.895566 -28.598783 -43.071071
379 1 -2.178498 -26.370306 -43.071071
380 1 -0.886596 -24.141830 -43.071071
381 1 -2.166001 -21.913353 -43.071071
382 1 -0.869917 -19.684876 -43.071071
383 1 -2.144402 -17.456400 -43.071071
384 1 -0.842602 -15.227923 -43.071071
385 1 -2.110560 -12.999447 -43.071071
386 1 -0.801495 -10.770970 -43.071071
387 1 -2.061671 -8.542494 -43.071071
388 1 -0.744721 -6.314017 -43.071071
389 1 -1.997548 -4.085540 -43.071071
390 1 -0.674605 -1.857064 -43.071071
391 1 -1.923629 0.371413 -43.071071
392 1 -0.599686 2.599889 -43.071071
393 1 -1.850688 4.828366 -43.071071
394 1 -0.531364 7.056842 -43.071071
395 1 -1.788907 9.285319 -43.071071
396 1 -0.477194 11.513796 -43.071071
397 1 -1.742649 13.742272 -43.071071
398 1 -0.438581 15.970749 -43.071071
399 1 -1.711071 18.199225 -43.071071
400 1 -0.413262 20.427702 -43.071071
401 1 -1.691198 22.656178 -43.071071
402 1 -0.398055 24.884655 -43.071071
403 1 -1.679945 27.113132 -43.071071
404 1 -0.390130 29.341608 -43.071071
405 1 -1.674805 31.570085 -43.071071
406 1 -0.387311 33.798561 -43.071071
407 1 -1.673913 36.027038 -43.071071
408 1 -0.388014 38.255514 -43.071071
409 1 -1.675931 40.483991 -43.071071
410 1 -0.391110 42.712468 -43.071071
411 1 -1.679908 44.940944 -43.071071
412 1 -0.395800 47.169421 -43.071071
413 1 -1.685170 49.397897 -43.071071
414 1 -0.401517 51.626374 -43.071071
415 1 -1.691241 53.854850 -43.071071
416 1 -0.407859 56.083327 -43.071071
417 1 -1.697785 58.311804 -43.071071
418 1 -0.414545 60.540280 -43.071071
419 1 -1.704563 62.768757 -43.071071
420 1 -0.421373 64.997233 -43.071071
421 1 0.423656 -66.482884 -43.071071
422 1 1.706843 -64.254408 -43.071071
423 1 0.416813 -62.025931 -43.071071
424 1 1.700028 -59.797455 -43.071071
425 1 0.410061 -57.568978 -43.071071
426 1 1.693384 -55.340501 -43.071071
427 1 0.403577 -53.112025 -43.071071
428 1 1.687123 -50.883548 -43.071071
429 1 0.397614 -48.655072 -43.071071
430 1 1.681546 -46.426595 -43.071071
431 1 0.392529 -44.198119 -43.071071
432 1 1.677077 -41.969642 -43.071071
433 1 0.388825 -39.741165 -43.071071
434 1 1.674316 -37.512689 -43.071071
435 1 0.387217 -35.284212 -43.071071
436 1 1.674111 -33.055736 -43.071071
437 1 0.388712 -30.827259 -43.071071
438 1 1.677657 -28.598783 -43.071071
439 1 0.394725 -26.370306 -43.071071
440 1 1.686627 -24.141830 -43.071071
441 1 0.407222 -21.913353 -43.071071
442 1 1.703307 -19.684876 -43.071071
443 1 0.428821 -17.456400 -43.071071
444 1 1.730621 -15.227923 -43.071071
445 1 0.462663 -12.999447 -43.071071
446 1 1.771728 -10.770970 -43.071071
447 1 0.511552 -8.542494 -43.071071
448 1 1.828502 -6.314017 -43.071071
449 1 0.575675 -4.085540 -43.071071
450 1 1.898618 -1.857064 -43.071071
451 1 0.649594 0.371413 -43.071071
452 1 1.973537 2.599889 -43.071071
453 1 0.722535 4.828366 -43.071071
454 1 2.041860 7.056842 -43.071071
455 1 0.784316 9.285319 -43.071071
456 1 2.096029 11.513796 -43.071071
457 1 0.830574 13.742272 -43.071071
458 1 2.134642 15.970749 -43.071071
459 1 0.862153 18.199225 -43.071071
460 1 2.159961 20.427702 -43.071071
461 1 0.882025 22.656178 -43.071071
462 1 2.175168 24.884655 -43.071071
463 1 0.893278 27.113132 -43.071071
464 1 2.183093 29.341608 -43.071071
465 1 0.898418 31.570085 -43.071071
466 1 2.185913 33.798561 -43.071071
467 1 0.899310 36.027038 -43.071071
468 1 2.185209 38.255514 -43.071071
469 1 0.897292 40.483991 -43.071071
470 1 2.182113 42.712468 -43.071071
471 1 0.893316 44.940944 -43.071071
472 1 2.177423 47.169421 -43.071071
473 1 0.888053 49.397897 -43.071071
474 1 2.171706 51.626374 -43.071071
475 1 0.881982 53.854850 -43.071071
476 1 2.165364 56.083327 -43.071071
477 1 0.875438 58.311804 -43.071071
478 1 2.158678 60.540280 -43.071071
479 1 0.868660 62.768757 -43.071071
480 1 2.151850 64.997233 -43.071071
481 1 -0.869984 -65.740059 -40.970043
482 1 0.412819 -63.511582 -40.970043
483 1 -0.877620 -61.283106 -40.970043
484 1 0.405160 -59.054629 -40.970043
485 1 -0.885268 -56.826153 -40.970043
486 1 0.397564 -54.597676 -40.970043
487 1 -0.892762 -52.369199 -40.970043
488 1 0.390232 -50.140723 -40.970043
489 1 -0.899858 -47.912246 -40.970043
490 1 0.383461 -45.683770 -40.970043
491 1 -0.906200 -43.455293 -40.970043
492 1 0.377676 -41.226817 -40.970043
493 1 -0.911274 -38.998340 -40.970043
494 1 0.373499 -36.769863 -40.970043
495 1 -0.914331 -34.541387 -40.970043
496 1 0.371832 -32.312910 -40.970043
497 1 -0.914282 -30.084434 -40.970043
498 1 0.373991 -27.855957 -40.970043
499 1 -0.909534 -25.627481 -40.970043
500 1 0.381902 -23.399004 -40.970043
501 1 -0.897771 -21.170527 -40.970043
502 1 0.398338 -18.942051 -40.970043
503 1 -0.875704 -16.713574 -40.970043
504 1 0.427119 -14.485098 -40.970043
505 1 -0.839045 -12.256621 -40.970043
506 1 0.472784 -10.028145 -40.970043
507 1 -0.783496 -7.799668 -40.970043
508 1 0.538522 -5.571191 -40.970043
509 1 -0.708246 -3.342715 -40.970043
510 1 0.621289 -1.114238 -40.970043
511 1 -0.621289 1.114238 -40.970043
512 1 0.708246 3.342715 -40.970043
513 1 -0.538522 5.571191 -40.970043
514 1 0.783496 7.799668 -40.970043
515 1 -0.472784 10.028145 -40.970043
516 1 0.839045 12.256621 -40.970043
517 1 -0.427119 14.485098 -40.970043
518 1 0.875704 16.713574 -40.970043
519 1 -0.398338 18.942051 -40.970043
520 1 0.897771 21.170527 -40.970043
521 1 -0.381902 23.399004 -40.970043
522 1 0.909534 25.627481 -40.970043
523 1 -0.373991 27.855957 -40.970043
524 1 0.914282 30.084434 -40.970043
525 1 -0.371832 32.312910 -40.970043
526 1 0.914331 34.541387 -40.970043
527 1 -0.373499 36.769863 -40.970043
528 1 0.911274 38.998340 -40.970043
529 1 -0.377676 41.226817 -40.970043
530 1 0.906200 43.455293 -40.970043
531 1 -0.383461 45.683770 -40.970043
532 1 0.899858 47.912246 -40.970043
533 1 -0.390232 50.140723 -40.970043
534 1 0.892762 52.369199 -40.970043
535 1 -0.397564 54.597676 -40.970043
536 1 0.885268 56.826153 -40.970043
537 1 -0.405160 59.054629 -40.970043
538 1 0.877620 61.283106 -40.970043
539 1 -0.412819 63.511582 -40.970043
540 1 0.869984 65.740059 -40.970043
541 1 1.703239 -65.740059 -40.970043
542 1 -2.160404 -63.511582 -40.970043
543 1 1.695603 -61.283106 -40.970043
544 1 -2.168063 -59.054629 -40.970043
545 1 1.687955 -56.826153 -40.970043
546 1 -2.175659 -54.597676 -40.970043
547 1 1.680461 -52.369199 -40.970043
548 1 -2.182991 -50.140723 -40.970043
549 1 1.673365 -47.912246 -40.970043
550 1 -2.189762 -45.683770 -40.970043
551 1 1.667023 -43.455293 -40.970043
552 1 -2.195547 -41.226817 -40.970043
553 1 1.661950 -38.998340 -40.970043
554 1 -2.199724 -36.769863 -40.970043
555 1 1.658892 -34.541387 -40.970043
556 1 -2.201391 -32.312910 -40.970043
557 1 1.658941 -30.084434 -40.970043
558 1 -2.199232 -27.855957 -40.970043
559 1 1.663689 -25.627481 -40.970043
560 1 -2.191322 -23.399004 -40.970043
561 1 1.675452 -21.170527 -40.970043
562 1 -2.174885 -18.942051 -40.970043
563 1 1.697519 -16.713574 -40.970043
564 1 -2.146104 -14.485098 -40.970043
565 1 1.734178 -12.256621 -40.970043
566 1 -2.100439 -10.028145 -40.970043
567 1 1.789728 -7.799668 -40.970043
568 1 -2.034701 -5.571191 -40.970043
569 1 1.864977 -3.342715 -40.970043
570 1 -1.951934 -1.114238 -40.970043
571 1 1.951934 1.114238 -40.970043
572 1 -1.864977 3.342715 -40.970043
573 1 2.034701 5.571191 -40.970043
574 1 -1.789728 7.799668 -40.970043
575 1 2.100439 10.028145 -40.970043
576 1 -1.734178 12.256621 -40.970043
577 1 2.146104 14.485098 -40.970043
578 1 -1.697519 16.713574 -40.970043
579 1 2.174885 18.942051 -40.970043
580 1 -1.675452 21.170527 -40.970043
581 1 2.191322 23.399004 -40.970043
582 1 -1.663689 25.627481 -40.970043
583 1 2.199232 27.855957 -40.970043
584 1 -1.658941 30.084434 -40.970043
585 1 2.201391 32.312910 -40.970043
586 1 -1.658892 34.541387 -40.970043
587 1 2.199724 36.769863 -40.970043
588 1 -1.661950 38.998340 -40.970043
589 1 2.195547 41.226817 -40.970043
590 1 -1.667023 43.455293 -40.970043
591 1 2.189762 45.683770 -40.970043
592 1 -1.673365 47.912246 -40.970043
593 1 2.182991 50.140723 -40.970043
594 1 -1.680461 52.369199 -40.970043
595 1 2.175659 54.597676 -40.970043
596 1 -1.687955 56.826153 -40.970043
597 1 2.168063 59.054629 -40.970043
598 1 -1.695603 61.283106 -40.970043
599 1 2.160404 63.511582 -40.970043
600 1 -1.703239 65.740059 -40.970043
601 1 0.409374 -64.997233 -38.869015
602 1 1.691764 -62.768757 -38.869015
603 1 0.400883 -60.540280 -38.869015
604 1 1.683190 -58.311804 -38.869015
605 1 0.392257 -56.083327 -38.869015
606 1 1.674550 -53.854850 -38.869015
607 1 0.383648 -51.626374 -38.869015
608 1 1.666029 -49.397897 -38.869015
609 1 0.375285 -47.169421 -38.869015
610 1 1.657909 -44.940944 -38.869015
611 1 0.367512 -42.712468 -38.869015
612 1 1.650609 -40.483991 -38.869015
613 1 0.360840 -38.255514 -38.869015
614 1 1.644755 -36.027038 -38.869015
615 1 0.356036 -33.798561 -38.869015
616 1 1.641287 -31.570085 -38.869015
617 1 0.354255 -29.341608 -38.869015
618 1 1.641627 -27.113132 -38.869015
619 1 0.357253 -24.884655 -38.869015
620 1 1.647949 -22.656178 -38.869015
621 1 0.367723 -20.427702 -38.869015
622 1 1.663583 -18.199225 -38.869015
623 1 0.389761 -15.970749 -38.869015
624 1 1.693501 -13.742272 -38.869015
625 1 0.429243 -11.513796 -38.869015
626 1 1.744306 -9.285319 -38.869015
627 1 0.492897 -7.056842 -38.869015
628 1 1.821540 -4.828366 -38.869015
629 1 0.582868 -2.599889 -38.869015
630 1 1.921156 -0.371413 -38.869015
631 1 0.686791 1.857064 -38.869015
632 1 2.022890 4.085540 -38.869015
633 1 0.780442 6.314017 -38.869015
634 1 2.104564 8.542494 -38.869015
635 1 0.848602 10.770970 -38.869015
636 1 2.159508 12.999447 -38.869015
637 1 0.891666 15.227923 -38.869015
638 1 2.192419 17.456400 -38.869015
639 1 0.916155 19.684876 -38.869015
640 1 2.210038 21.913353 -38.869015
641 1 0.928223 24.141830 -38.869015
642 1 2.217642 26.370306 -38.869015
643 1 0.932247 28.598783 -38.869015
644 1 2.218803 30.827259 -38.869015
645 1 0.931121 33.055736 -38.869015
646 1 2.215855 35.284212 -38.869015
647 1 0.926727 37.512689 -38.869015
648 1 2.210323 39.741165 -38.869015
649 1 0.920305 41.969642 -38.869015
650 1 2.203213 44.198119 -38.869015
651 1 0.912674 46.426595 -38.869015
652 1 2.195196 48.655072 -38.869015
653 1 0.904382 50.883548 -38.869015
654 1 2.186720 53.112025 -38.869015
655 1 0.895796 55.340501 -38.869015
656 1 2.178084 57.568978 -38.869015
657 1 0.887161 59.797455 -38.869015
658 1 2.169489 62.025931 -38.869015
659 1 0.878638 64.254408 -38.869015
660 1 2.161066 66.482884 -38.869015
661 1 -2.163849 -64.997233 -38.869015
662 1 -0.881459 -62.768757 -38.869015
663 1 -2.172341 -60.540280 -38.869015
664 1 -0.890033 -58.311804 -38.869015
665 1 -2.180966 -56.083327 -38.869015
666 1 -0.898673 -53.854850 -38.869015
667 1 -2.189575 -51.626374 -38.869015
668 1 -0.907194 -49.397897 -38.869015
669 1 -2.197938 -47.169421 -38.869015
670 1 -0.915314 -44.940944 -38.869015
671 1 -2.205711 -42.712468 -38.869015
672 1 -0.922614 -40.483991 -38.869015
673 1 -2.212383 -38.255514 -38.869015
674 1 -0.928468 -36.027038 -38.869015
675 1 -2.217187 -33.798561 -38.869015
676 1 -0.931936 -31.570085 -38.869015
677 1 -2.218968 -29.341608 -38.869015
678 1 -0.931596 -27.113132 -38.869015
679 1 -2.215970 -24.884655 -38.869015
680 1 -0.925274 -22.656178 -38.869015
681 1 -2.205500 -20.427702 -38.869015
682 1 -0.909640 -18.199225 -38.869015
683 1 -2.183462 -15.970749 -38.869015
684 1 -0.879722 -13.742272 -38.869015
685 1 -2.143981 -11.513796 -38.869015
686 1 -0.828917 -9.285319 -38.869015
687 1 -2.080326 -7.056842 -38.869015
688 1 -0.751683 -4.828366 -38.869015
689 1 -1.990355 -2.599889 -38.869015
690 1 -0.652067 -0.371413 -38.869015
691 1 -1.886432 1.857064 -38.869015
692 1 -0.550333 4.085540 -38.869015
693 1 -1.792781 6.314017 -38.869015
694 1 -0.468659 8.542494 -38.869015
695 1 -1.724621 10.770970 -38.869015
696 1 -0.413715 12.999447 -38.869015
697 1 -1.681557 15.227923 -38.869015
698 1 -0.380804 17.456400 -38.869015
699 1 -1.657068 19.684876 -38.869015
700 1 -0.363185 21.913353 -38.869015
701 1 -1.645001 24.141830 -38.869015
702 1 -0.355581 26.370306 -38.869015
703 1 -1.640976 28.598783 -38.869015
704 1 -0.354420 30.827259 -38.869015
705 1 -1.642103 33.055736 -38.869015
706 1 -0.357369 35.284212 -38.869015
707 1 -1.646496 37.512689 -38.869015
708 1 -0.362901 39.741165 -38.869015
709 1 -1.652918 41.969642 -38.869015
710 1 -0.370010 44.198119 -38.869015
711 1 -1.660549 46.426595 -38.869015
712 1 -0.378027 48.655072 -38.869015
713 1 -1.668841 50.883548 -38.869015
714 1 -0.386503 53.112025 -38.869015
715 1 -1.677427 55.340501 -38.869015
716 1 -0.395139 57.568978 -38.869015
717 1 -1.686062 59.797455 -38.869015
718 1 -0.403734 62.025931 -38.869015
719 1 -1.694585 64.254408 -38.869015
720 1 -0.412157 66.482884 -38.869015
721 1 -2.166742 -66.482884 -36.767988
722 1 -0.884708 -64.254408 -36.767988
723 1 -2.175985 -62.025931 -36.767988
724 1 -0.894120 -59.797455 -36.767988
725 1 -2.185547 -57.568978 -36.767988
726 1 -0.903807 -55.340501 -36.767988
727 1 -2.195328 -53.112025 -36.767988
728 1 -0.913640 -50.883548 -36.767988
729 1 -2.205163 -48.655072 -36.767988
730 1 -0.923414 -46.426595 -36.767988
731 1 -2.214797 -44.198119 -36.767988
732 1 -0.932810 -41.969642 -36.767988
733 1 -2.223832 -39.741165 -36.767988
734 1 -0.941334 -37.512689 -36.767988
735 1 -2.231658 -35.284212 -36.767988
736 1 -0.948227 -33.055736 -36.767988
737 1 -2.237324 -30.827259 -36.767988
738 1 -0.952299 -28.598783 -36.767988
739 1 -2.239338 -26.370306 -36.767988
740 1 -0.951666 -24.141830 -36.767988
741 1 -2.235306 -21.913353 -36.767988
742 1 -0.943271 -19.684876 -36.767988
743 1 -2.221313 -17.456400 -36.767988
744 1 -0.922097 -15.227923 -36.767988
745 1 -2.190955 -12.999447 -36.767988
746 1 -0.880104 -10.770970 -36.767988
747 1 -2.134533 -8.542494 -36.767988
748 1 -0.806530 -6.314017 -36.767988
749 1 -2.042138 -4.085540 -36.767988
750 1 -0.696296 -1.857064 -36.767988
751 1 -1.919213 0.371413 -36.767988
752 1 -0.569842 2.599889 -36.767988
753 1 -1.799666 4.828366 -36.767988
754 1 -0.465209 7.056842 -36.767988
755 1 -1.713604 9.285319 -36.767988
756 1 -0.397617 11.513796 -36.767988
757 1 -1.662312 13.742272 -36.767988
758 1 -0.359801 15.970749 -36.767988
759 1 -1.635265 18.199225 -36.767988
760 1 -0.341221 20.427702 -36.767988
761 1 -1.623296 22.656178 -36.767988
762 1 -0.334403 24.884655 -36.767988
763 1 -1.620492 27.113132 -36.767988
764 1 -0.334727 29.341608 -36.767988
765 1 -1.623250 31.570085 -36.767988
766 1 -0.339376 33.798561 -36.767988
767 1 -1.629362 36.027038 -36.767988
768 1 -0.346609 38.255514 -36.767988
769 1 -1.637444 40.483991 -36.767988
770 1 -0.355323 42.712468 -36.767988
771 1 -1.646615 44.940944 -36.767988
772 1 -0.364811 47.169421 -36.767988
773 1 -1.656305 49.397897 -36.767988
774 1 -0.374613 51.626374 -36.767988
775 1 -1.666146 53.854850 -36.767988
776 1 -0.384433 56.083327 -36.767988
777 1 -1.675899 58.311804 -36.767988
778 1 -0.394082 60.540280 -36.767988
779 1 -1.685414 62.768757 -36.767988
780 1 -0.403440 64.997233 -36.767988
781 1 0.406481 -66.482884 -36.767988
782 1 1.688515 -64.254408 -36.767988
783 1 0.397238 -62.025931 -36.767988
784 1 1.679103 -59.797455 -36.767988
785 1 0.387676 -57.568978 -36.767988
786 1 1.669416 -55.340501 -36.767988
787 1 0.377895 -53.112025 -36.767988
788 1 1.659583 -50.883548 -36.767988
789 1 0.368060 -48.655072 -36.767988
790 1 1.649809 -46.426595 -36.767988
791 1 0.358426 -44.198119 -36.767988
792 1 1.640413 -41.969642 -36.767988
793 1 0.349391 -39.741165 -36.767988
794 1 1.631889 -37.512689 -36.767988
795 1 0.341565 -35.284212 -36.767988
796 1 1.624996 -33.055736 -36.767988
797 1 0.335899 -30.827259 -36.767988
798 1 1.620924 -28.598783 -36.767988
799 1 0.333885 -26.370306 -36.767988
800 1 1.621558 -24.141830 -36.767988
801 1 0.337917 -21.913353 -36.767988
802 1 1.629952 -19.684876 -36.767988
803 1 0.351910 -17.456400 -36.767988
804 1 1.651126 -15.227923 -36.767988
805 1 0.382268 -12.999447 -36.767988
806 1 1.693119 -10.770970 -36.767988
807 1 0.438690 -8.542494 -36.767988
808 1 1.766693 -6.314017 -36.767988
809 1 0.531085 -4.085540 -36.767988
810 1 1.876927 -1.857064 -36.767988
811 1 0.654010 0.371413 -36.767988
812 1 2.003381 2.599889 -36.767988
813 1 0.773557 4.828366 -36.767988
814 1 2.108014 7.056842 -36.767988
815 1 0.859619 9.285319 -36.767988
816 1 2.175606 11.513796 -36.767988
817 1 0.910912 13.742272 -36.767988
818 1 2.213422 15.970749 -36.767988
819 1 0.937958 18.199225 -36.767988
820 1 2.232002 20.427702 -36.767988
821 1 0.949928 22.656178 -36.767988
822 1 2.238820 24.884655 -36.767988
823 1 0.952731 27.113132 -36.767988
824 1 2.238496 29.341608 -36.767988
825 1 0.949973 31.570085 -36.767988
826 1 2.233847 33.798561 -36.767988
827 1 0.943861 36.027038 -36.767988
828 1 2.226614 38.255514 -36.767988
829 1 0.935779 40.483991 -36.767988
830 1 2.217900 42.712468 -36.767988
831 1 0.926608 44.940944 -36.767988
832 1 2.208413 47.169421 -36.767988
833 1 0.916918 49.397897 -36.767988
834 1 2.198610 51.626374 -36.767988
835 1 0.907077 53.854850 -36.767988
836 1 2.188790 56.083327 -36.767988
837 1 0.897324 58.311804 -36.767988
838 1 2.179141 60.540280 -36.767988
839 1 0.887809 62.768757 -36.767988
840 1 2.169783 64.997233 -36.767988
841 1 -0.887367 -65.740059 -34.666960
842 1 0.394227 -63.511582 -34.666960
843 1 -0.897525 -61.283106 -34.666960
844 1 0.383829 -59.054629 -34.666960
845 1 -0.908150 -56.826153 -34.666960
846 1 0.372995 -54.597676 -34.666960
847 1 -0.919169 -52.369199 -34.666960
848 1 0.361824 -50.140723 -34.666960
849 1 -0.930450 -47.912246 -34.666960
850 1 0.350486 -45.683770 -34.666960
851 1 -0.941774 -43.455293 -34.666960
852 1 0.339263 -41.226817 -34.666960
853 1 -0.952785 -38.998340 -34.666960
854 1 0.328606 -36.769863 -34.666960
855 1 -0.962911 -34.541387 -34.666960
856 1 0.319237 -32.312910 -34.666960
857 1 -0.971234 -30.084434 -34.666960
858 1 0.312330 -27.855957 -34.666960
859 1 -0.976249 -25.627481 -34.666960
860 1 0.309829 -23.399004 -34.666960
861 1 -0.975420 -21.170527 -34.666960
862 1 0.315073 -18.942051 -34.666960
863 1 -0.964303 -16.713574 -34.666960
864 1 0.334032 -14.485098 -34.666960
865 1 -0.934836 -12.256621 -34.666960
866 1 0.377557 -10.028145 -34.666960
867 1 -0.872750 -7.799668 -34.666960
868 1 0.463227 -5.571191 -34.666960
869 1 -0.759644 -3.342715 -34.666960
870 1 0.602882 -1.114238 -34.666960
871 1 -0.602882 1.114238 -34.666960
872 1 0.759644 3.342715 -34.666960
873 1 -0.463227 5.571191 -34.666960
874 1 0.872750 7.799668 -34.666960
875 1 -0.377557 10.028145 -34.666960
876 1 0.934836 12.256621 -34.666960
877 1 -0.334032 14.485098 -34.666960
878 1 0.964303 16.713574 -34.666960
879 1 -0.315073 18.942051 -34.666960
880 1 0.975420 21.170527 -34.666960
881 1 -0.309829 23.399004 -34.666960
882 1 0.976249 25.627481 -34.666960
883 1 -0.312330 27.855957 -34.666960
884 1 0.971234 30.084434 -34.666960
885 1 -0.319237 32.312910 -34.666960
886 1 0.962911 34.541387 -34.666960
887 1 -0.328606 36.769863 -34.666960
888 1 0.952785 38.998340 -34.666960
889 1 -0.339263 41.226817 -34.666960
890 1 0.941774 43.455293 -34.666960
891 1 -0.350486 45.683770 -34.666960
892 1 0.930450 47.912246 -34.666960
893 1 -0.361824 50.140723 -34.666960
894 1 0.919169 52.369199 -34.666960
895 1 -0.372995 54.597676 -34.666960
896 1 0.908150 56.826153 -34.666960
897 1 -0.383829 59.054629 -34.666960
898 1 0.897525 61.283106 -34.666960
899 1 -0.394227 63.511582 -34.666960
900 1 0.887367 65.740059 -34.666960
901 1 1.685856 -65.740059 -34.666960
902 1 -2.178996 -63.511582 -34.666960
903 1 1.675698 -61.283106 -34.666960
904 1 -2.189394 -59.054629 -34.666960
905 1 1.665073 -56.826153 -34.666960
906 1 -2.200228 -54.597676 -34.666960
907 1 1.654054 -52.369199 -34.666960
908 1 -2.211399 -50.140723 -34.666960
909 1 1.642773 -47.912246 -34.666960
910 1 -2.222737 -45.683770 -34.666960
911 1 1.631449 -43.455293 -34.666960
912 1 -2.233960 -41.226817 -34.666960
913 1 1.620438 -38.998340 -34.666960
914 1 -2.244617 -36.769863 -34.666960
915 1 1.610312 -34.541387 -34.666960
916 1 -2.253986 -32.312910 -34.666960
917 1 1.601990 -30.084434 -34.666960
918 1 -2.260893 -27.855957 -34.666960
919 1 1.596975 -25.627481 -34.666960
920 1 -2.263394 -23.399004 -34.666960
921 1 1.597803 -21.170527 -34.666960
922 1 -2.258150 -18.942051 -34.666960
923 1 1.608920 -16.713574 -34.666960
924 1 -2.239191 -14.485098 -34.666960
925 1 1.638387 -12.256621 -34.666960
926 1 -2.195666 -10.028145 -34.666960
927 1 1.700473 -7.799668 -34.666960
928 1 -2.109996 -5.571191 -34.666960
929 1 1.813579 -3.342715 -34.666960
930 1 -1.970341 -1.114238 -34.666960
931 1 1.970341 1.114238 -34.666960
932 1 -1.813579 3.342715 -34.666960
933 1 2.109996 5.571191 -34.666960
934 1 -1.700473 7.799668 -34.666960
935 1 2.195666 10.028145 -34.666960
936 1 -1.638387 12.256621 -34.666960
937 1 2.239191 14.485098 -34.666960
938 1 -1.608920 16.713574 -34.666960
939 1 2.258150 18.942051 -34.666960
940 1 -1.597803 21.170527 -34.666960
941 1 2.263394 23.399004 -34.666960
942 1 -1.596975 25.627481 -34.666960
943 1 2.260893 27.855957 -34.666960
944 1 -1.601990 30.084434 -34.666960
945 1 2.253986 32.312910 -34.666960
946 1 -1.610312 34.541387 -34.666960
947 1 2.244617 36.769863 -34.666960
948 1 -1.620438 38.998340 -34.666960
949 1 2.233960 41.226817 -34.666960
950 1 -1.631449 43.455293 -34.666960
951 1 2.222737 45.683770 -34.666960
952 1 -1.642773 47.912246 -34.666960
953 1 2.211399 50.140723 -34.666960
954 1 -1.654054 52.369199 -34.666960
955 1 2.200228 54.597676 -34.666960
956 1 -1.665073 56.826153 -34.666960
957 1 2.189394 59.054629 -34.666960
958 1 -1.675698 61.283106 -34.666960
959 1 2.178996 63.511582 -34.666960
960 1 -1.685856 65.740059 -34.666960
961 1 0.391844 -64.997233 -32.565932
962 1 1.672971 -62.768757 -32.565932
963 1 0.380714 -60.540280 -32.565932
964 1 1.661522 -58.311804 -32.565932
965 1 0.368951 -56.083327 -32.565932
966 1 1.649454 -53.854850 -32.565932
967 1 0.356593 -51.626374 -32.565932
968 1 1.636828 -49.397897 -32.565932
969 1 0.343730 -47.169421 -32.565932
970 1 1.623770 -44.940944 -32.565932
971 1 0.330532 -42.712468 -32.565932
972 1 1.610503 -40.483991 -32.565932
973 1 0.317291 -38.255514 -32.565932
974 1 1.597411 -36.027038 -32.565932
975 1 0.304505 -33.798561 -32.565932
976 1 1.585136 -31.570085 -32.565932
977 1 0.293008 -29.341608 -32.565932
978 1 1.574766 -27.113132 -32.565932
979 1 0.284227 -24.884655 -32.565932
980 1 1.568189 -22.656178 -32.565932
981 1 0.280690 -20.427702 -32.565932
982 1 1.568846 -18.199225 -32.565932
983 1 0.287164 -15.970749 -32.565932
984 1 1.583465 -13.742272 -32.565932
985 1 0.313329 -11.513796 -32.565932
986 1 1.626188 -9.285319 -32.565932
987 1 0.379859 -7.056842 -32.565932
988 1 1.726119 -4.828366 -32.565932
989 1 0.522545 -2.599889 -32.565932
990 1 1.911883 -0.371413 -32.565932
991 1 0.731454 1.857064 -32.565932
992 1 2.108693 4.085540 -32.565932
993 1 0.889290 6.314017 -32.565932
994 1 2.222029 8.542494 -32.565932
995 1 0.965801 10.770970 -32.565932
996 1 2.271756 12.999447 -32.565932
997 1 0.996831 15.227923 -32.565932
998 1 2.289779 17.456400 -32.565932
999 1 1.005717 19.684876 -32.565932
1000 1 2.292166 21.913353 -32.565932
1001 1 1.003431 24.141830 -32.565932
1002 1 2.286496 26.370306 -32.565932
1003 1 0.995306 28.598783 -32.565932
1004 1 2.276598 30.827259 -32.565932
1005 1 0.984141 33.055736 -32.565932
1006 1 2.264549 35.284212 -32.565932
1007 1 0.971500 37.512689 -32.565932
1008 1 2.251539 39.741165 -32.565932
1009 1 0.958294 41.969642 -32.565932
1010 1 2.238269 44.198119 -32.565932
1011 1 0.945064 46.426595 -32.565932
1012 1 2.225157 48.655072 -32.565932
1013 1 0.932131 50.883548 -32.565932
1014 1 2.212449 53.112025 -32.565932
1015 1 0.919681 55.340501 -32.565932
1016 1 2.200282 57.568978 -32.565932
1017 1 0.907814 59.797455 -32.565932
1018 1 2.188728 62.025931 -32.565932
1019 1 0.896578 64.254408 -32.565932
1020 1 2.177813 66.482884 -32.565932
1021 1 -2.181380 -64.997233 -32.565932
1022 1 -0.900252 -62.768757 -32.565932
1023 1 -2.192509 -60.540280 -32.565932
1024 1 -0.911701 -58.311804 -32.565932
1025 1 -2.204272 -56.083327 -32.565932
1026 1 -0.923769 -53.854850 -32.565932
1027 1 -2.216630 -51.626374 -32.565932
1028 1 -0.936395 -49.397897 -32.565932
1029 1 -2.229493 -47.169421 -32.565932
1030 1 -0.949453 -44.940944 -32.565932
1031 1 -2.242691 -42.712468 -32.565932
1032 1 -0.962720 -40.483991 -32.565932
1033 1 -2.255932 -38.255514 -32.565932
1034 1 -0.975812 -36.027038 -32.565932
1035 1 -2.268718 -33.798561 -32.565932
1036 1 -0.988087 -31.570085 -32.565932
1037 1 -2.280215 -29.341608 -32.565932
1038 1 -0.998457 -27.113132 -32.565932
1039 1 -2.288997 -24.884655 -32.565932
1040 1 -1.005034 -22.656178 -32.565932
1041 1 -2.292533 -20.427702 -32.565932
1042 1 -1.004377 -18.199225 -32.565932
1043 1 -2.286059 -15.970749 -32.565932
1044 1 -0.989758 -13.742272 -32.565932
1045 1 -2.259894 -11.513796 -32.565932
1046 1 -0.947035 -9.285319 -32.565932
1047 1 -2.193364 -7.056842 -32.565932
1048 1 -0.847104 -4.828366 -32.565932
1049 1 -2.050679 -2.599889 -32.565932
1050 1 -0.661341 -0.371413 -32.565932
1051 1 -1.841769 1.857064 -32.565932
1052 1 -0.464530 4.085540 -32.565932
1053 1 -1.683933 6.314017 -32.565932
1054 1 -0.351195 8.542494 -32.565932
1055 1 -1.607422 10.770970 -32.565932
1056 1 -0.301467 12.999447 -32.565932
1057 1 -1.576392 15.227923 -32.565932
1058 1 -0.283444 17.456400 -32.565932
1059 1 -1.567506 19.684876 -32.565932
1060 1 -0.281057 21.913353 -32.565932
1061 1 -1.569792 24.141830 -32.565932
1062 1 -0.286727 26.370306 -32.565932
1063 1 -1.577917 28.598783 -32.565932
1064 1 -0.296626 30.827259 -32.565932
1065 1 -1.589082 33.055736 -32.565932
1066 1 -0.308674 35.284212 -32.565932
1067 1 -1.601723 37.512689 -32.565932
1068 1 -0.321684 39.741165 -32.565932
1069 1 -1.614929 41.969642 -32.565932
1070 1 -0.334954 44.198119 -32.565932
1071 1 -1.628159 46.426595 -32.565932
1072 1 -0.348066 48.655072 -32.565932
1073 1 -1.641093 50.883548 -32.565932
1074 1 -0.360774 53.112025 -32.565932
1075 1 -1.653543 55.340501 -32.565932
1076 1 -0.372941 57.568978 -32.565932
1077 1 -1.665409 59.797455 -32.565932
1078 1 -0.384495 62.025931 -32.565932
1079 1 -1.676645 64.254408 -32.565932
1080 1 -0.395410 66.482884 -32.565932
1081 1 -2.183149 -66.482884 -30.464904
1082 1 -0.902315 -64.254408 -30.464904
1083 1 -2.194903 -62.025931 -30.464904
1084 1 -0.914470 -59.797455 -30.464904
1085 1 -2.207466 -57.568978 -30.464904
1086 1 -0.927446 -55.340501 -30.464904
1087 1 -2.220855 -53.112025 -30.464904
1088 1 -0.941243 -50.883548 -30.464904
1089 1 -2.235052 -48.655072 -30.464904
1090 1 -0.955824 -46.426595 -30.464904
1091 1 -2.249992 -44.198119 -30.464904
1092 1 -0.971087 -41.969642 -30.464904
1093 1 -2.265526 -39.741165 -30.464904
1094 1 -0.986824 -37.512689 -30.464904
1095 1 -2.281372 -35.284212 -30.464904
1096 1 -1.002652 -33.055736 -30.464904
1097 1 -2.297017 -30.827259 -30.464904
1098 1 -1.017891 -28.598783 -30.464904
1099 1 -2.311551 -26.370306 -30.464904
1100 1 -1.031317 -24.141830 -30.464904
1101 1 -2.323314 -21.913353 -30.464904
1102 1 -1.040643 -19.684876 -30.464904
1103 1 -2.329095 -17.456400 -30.464904
1104 1 -1.041245 -15.227923 -30.464904
1105 1 -2.322022 -12.999447 -30.464904
1106 1 -1.022531 -10.770970 -30.464904
1107 1 -2.285100 -8.542494 -30.464904
1108 1 -0.956191 -6.314017 -30.464904
1109 1 -2.170654 -4.085540 -30.464904
1110 1 -0.768828 -1.857064 -30.464904
1111 1 -1.903738 0.371413 -30.464904
1112 1 -0.474183 2.599889 -30.464904
1113 1 -1.660915 4.828366 -30.464904
1114 1 -0.313680 7.056842 -30.464904
1115 1 -1.565122 9.285319 -30.464904
1116 1 -0.258796 11.513796 -30.464904
1117 1 -1.535231 13.742272 -30.464904
1118 1 -0.244532 15.970749 -30.464904
1119 1 -1.531067 18.199225 -30.464904
1120 1 -0.247086 20.427702 -30.464904
1121 1 -1.538181 22.656178 -30.464904
1122 1 -0.257328 24.884655 -30.464904
1123 1 -1.550572 27.113132 -30.464904
1124 1 -0.271177 29.341608 -30.464904
1125 1 -1.565380 31.570085 -30.464904
1126 1 -0.286580 33.798561 -30.464904
1127 1 -1.581107 36.027038 -30.464904
1128 1 -0.302430 38.255514 -30.464904
1129 1 -1.596929 40.483991 -30.464904
1130 1 -0.318109 42.712468 -30.464904
1131 1 -1.612380 44.940944 -30.464904
1132 1 -0.333269 47.169421 -30.464904
1133 1 -1.627203 49.397897 -30.464904
1134 1 -0.347724 51.626374 -30.464904
1135 1 -1.641269 53.854850 -30.464904
1136 1 -0.361386 56.083327 -30.464904
1137 1 -1.654519 58.311804 -30.464904
1138 1 -0.374224 60.540280 -30.464904
1139 1 -1.666946 62.768757 -30.464904
1140 1 -0.386244 64.997233 -30.464904
1141 1 0.390074 -66.482884 -30.464904
1142 1 1.670908 -64.254408 -30.464904
1143 1 0.378320 -62.025931 -30.464904
1144 1 1.658753 -59.797455 -30.464904
1145 1 0.365757 -57.568978 -30.464904
1146 1 1.645777 -55.340501 -30.464904
1147 1 0.352369 -53.112025 -30.464904
1148 1 1.631980 -50.883548 -30.464904
1149 1 0.338171 -48.655072 -30.464904
1150 1 1.617399 -46.426595 -30.464904
1151 1 0.323231 -44.198119 -30.464904
1152 1 1.602136 -41.969642 -30.464904
1153 1 0.307697 -39.741165 -30.464904
1154 1 1.586399 -37.512689 -30.464904
1155 1 0.291851 -35.284212 -30.464904
1156 1 1.570571 -33.055736 -30.464904
1157 1 0.276206 -30.827259 -30.464904
1158 1 1.555332 -28.598783 -30.464904
1159 1 0.261672 -26.370306 -30.464904
1160 1 1.541906 -24.141830 -30.464904
1161 1 0.249909 -21.913353 -30.464904
1162 1 1.532580 -19.684876 -30.464904
1163 1 0.244128 -17.456400 -30.464904
1164 1 1.531978 -15.227923 -30.464904
1165 1 0.251201 -12.999447 -30.464904
1166 1 1.550692 -10.770970 -30.464904
1167 1 0.288123 -8.542494 -30.464904
1168 1 1.617032 -6.314017 -30.464904
1169 1 0.402569 -4.085540 -30.464904
1170 1 1.804395 -1.857064 -30.464904
1171 1 0.669485 0.371413 -30.464904
1172 1 2.099040 2.599889 -30.464904
1173 1 0.912308 4.828366 -30.464904
1174 1 2.259543 7.056842 -30.464904
1175 1 1.008101 9.285319 -30.464904
1176 1 2.314427 11.513796 -30.464904
1177 1 1.037992 13.742272 -30.464904
1178 1 2.328691 15.970749 -30.464904
1179 1 1.042156 18.199225 -30.464904
1180 1 2.326137 20.427702 -30.464904
1181 1 1.035042 22.656178 -30.464904
1182 1 2.315895 24.884655 -30.464904
1183 1 1.022651 27.113132 -30.464904
1184 1 2.302046 29.341608 -30.464904
1185 1 1.007843 31.570085 -30.464904
1186 1 2.286643 33.798561 -30.464904
1187 1 0.992116 36.027038 -30.464904
1188 1 2.270793 38.255514 -30.464904
1189 1 0.976294 40.483991 -30.464904
1190 1 2.255114 42.712468 -30.464904
1191 1 0.960844 44.940944 -30.464904
1192 1 2.239954 47.169421 -30.464904
1193 1 0.946020 49.397897 -30.464904
1194 1 2.225499 51.626374 -30.464904
1195 1 0.931955 53.854850 -30.464904
1196 1 2.211837 56.083327 -30.464904
1197 1 0.918704 58.311804 -30.464904
1198 1 2.199000 60.540280 -30.464904
1199 1 0.906277 62.768757 -30.464904
1200 1 2.186979 64.997233 -30.464904
1201 1 -0.903733 -65.740059 -28.363876
1202 1 0.376626 -63.511582 -28.363876
1203 1 -0.916478 -61.283106 -28.363876
1204 1 0.363393 -59.054629 -28.363876
1205 1 -0.930217 -56.826153 -28.363876
1206 1 0.349134 -54.597676 -28.363876
1207 1 -0.945008 -52.369199 -28.363876
1208 1 0.333800 -50.140723 -28.363876
1209 1 -0.960891 -47.912246 -28.363876
1210 1 0.317365 -45.683770 -28.363876
1211 1 -0.977873 -43.455293 -28.363876
1212 1 0.299849 -41.226817 -28.363876
1213 1 -0.995900 -38.998340 -28.363876
1214 1 0.281346 -36.769863 -28.363876
1215 1 -1.014824 -34.541387 -28.363876
1216 1 0.262080 -32.312910 -28.363876
1217 1 -1.034324 -30.084434 -28.363876
1218 1 0.242499 -27.855957 -28.363876
1219 1 -1.053776 -25.627481 -28.363876
1220 1 0.223468 -23.399004 -28.363876
1221 1 -1.071973 -21.170527 -28.363876
1222 1 0.206697 -18.942051 -28.363876
1223 1 -1.086442 -16.713574 -28.363876
1224 1 0.195877 -14.485098 -28.363876
1225 1 -1.091433 -12.256621 -28.363876
1226 1 0.200483 -10.028145 -28.363876
1227 1 -1.070141 -7.799668 -28.363876
1228 1 0.253268 -5.571191 -28.363876
1229 1 -0.951492 -3.342715 -28.363876
1230 1 0.512645 -1.114238 -28.363876
1231 1 -0.512645 1.114238 -28.363876
1232 1 0.951492 3.342715 -28.363876
1233 1 -0.253268 5.571191 -28.363876
1234 1 1.070141 7.799668 -28.363876
1235 1 -0.200483 10.028145 -28.363876
1236 1 1.091433 12.256621 -28.363876
1237 1 -0.195877 14.485098 -28.363876
1238 1 1.086442 16.713574 -28.363876
1239 1 -0.206697 18.942051 -28.363876
1240 1 1.071973 21.170527 -28.363876
1241 1 -0.223468 23.399004 -28.363876
1242 1 1.053776 25.627481 -28.363876
1243 1 -0.242499 27.855957 -28.363876
1244 1 1.034324 30.084434 -28.363876
1245 1 -0.262080 32.312910 -28.363876
1246 1 1.014824 34.541387 -28.363876
1247 1 -0.281346 36.769863 -28.363876
1248 1 0.995900 38.998340 -28.363876
1249 1 -0.299849 41.226817 -28.363876
1250 1 0.977873 43.455293 -28.363876
1251 1 -0.317365 45.683770 -28.363876
1252 1 0.960891 47.912246 -28.363876
1253 1 -0.333800 50.140723 -28.363876
1254 1 0.945008 52.369199 -28.363876
1255 1 -0.349134 54.597676 -28.363876
1256 1 0.930217 56.826153 -28.363876
1257 1 -0.363393 59.054629 -28.363876
1258 1 0.916478 61.283106 -28.363876
1259 1 -0.376626 63.511582 -28.363876
1260 1 0.903733 65.740059 -28.363876
1261 1 1.669490 -65.740059 -28.363876
1262 1 -2.196597 -63.511582 -28.363876
1263 1 1.656745 -61.283106 -28.363876
1264 1 -2.209831 -59.054629 -28.363876
1265 1 1.643006 -56.826153 -28.363876
1266 1 -2.224089 -54.597676 -28.363876
1267 1 1.628215 -52.369199 -28.363876
1268 1 -2.239423 -50.140723 -28.363876
1269 1 1.612332 -47.912246 -28.363876
1270 1 -2.255858 -45.683770 -28.363876
1271 1 1.595351 -43.455293 -28.363876
1272 1 -2.273374 -41.226817 -28.363876
1273 1 1.577323 -38.998340 -28.363876
1274 1 -2.291877 -36.769863 -28.363876
1275 1 1.558399 -34.541387 -28.363876
1276 1 -2.311143 -32.312910 -28.363876
1277 1 1.538899 -30.084434 -28.363876
1278 1 -2.330724 -27.855957 -28.363876
1279 1 1.519447 -25.627481 -28.363876
1280 1 -2.349755 -23.399004 -28.363876
1281 1 1.501250 -21.170527 -28.363876
1282 1 -2.366526 -18.942051 -28.363876
1283 1 1.486781 -16.713574 -28.363876
1284 1 -2.377346 -14.485098 -28.363876
1285 1 1.481790 -12.256621 -28.363876
1286 1 -2.372740 -10.028145 -28.363876
1287 1 1.503082 -7.799668 -28.363876
1288 1 -2.319955 -5.571191 -28.363876
1289 1 1.621731 -3.342715 -28.363876
1290 1 -2.060578 -1.114238 -28.363876
1291 1 2.060578 1.114238 -28.363876
1292 1 -1.621731 3.342715 -28.363876
1293 1 2.319955 5.571191 -28.363876
1294 1 -1.503082 7.799668 -28.363876
1295 1 2.372740 10.028145 -28.363876
1296 1 -1.481790 12.256621 -28.363876
1297 1 2.377346 14.485098 -28.363876
1298 1 -1.486781 16.713574 -28.363876
1299 1 2.366526 18.942051 -28.363876
1300 1 -1.501250 21.170527 -28.363876
1301 1 2.349755 23.399004 -28.363876
1302 1 -1.519447 25.627481 -28.363876
1303 1 2.330724 27.855957 -28.363876
1304 1 -1.538899 30.084434 -28.363876
1305 1 2.311143 32.312910 -28.363876
1306 1 -1.558399 34.541387 -28.363876
1307 1 2.291877 36.769863 -28.363876
1308 1 -1.577323 38.998340 -28.363876
1309 1 2.273374 41.226817 -28.363876
1310 1 -1.595351 43.455293 -28.363876
1311 1 2.255858 45.683770 -28.363876
1312 1 -1.612332 47.912246 -28.363876
1313 1 2.239423 50.140723 -28.363876
1314 1 -1.628215 52.369199 -28.363876
1315 1 2.224089 54.597676 -28.363876
1316 1 -1.643006 56.826153 -28.363876
1317 1 2.209831 59.054629 -28.363876
1318 1 -1.656745 61.283106 -28.363876
1319 1 2.196597 63.511582 -28.363876
1320 1 -1.669490 65.740059 -28.363876
1321 1 0.375606 -64.997233 -26.262848
1322 1 1.655472 -62.768757 -26.262848
1323 1 0.361830 -60.540280 -26.262848
1324 1 1.641112 -58.311804 -26.262848
1325 1 0.346859 -56.083327 -26.262848
1326 1 1.625503 -53.854850 -26.262848
1327 1 0.330586 -51.626374 -26.262848
1328 1 1.608540 -49.397897 -26.262848
1329 1 0.312907 -47.169421 -26.262848
1330 1 1.590123 -44.940944 -26.262848
1331 1 0.293731 -42.712468 -26.262848
1332 1 1.570171 -40.483991 -26.262848
1333 1 0.272991 -38.255514 -26.262848
1334 1 1.548638 -36.027038 -26.262848
1335 1 0.250669 -33.798561 -26.262848
1336 1 1.525542 -31.570085 -26.262848
1337 1 0.226831 -29.341608 -26.262848
1338 1 1.501016 -27.113132 -26.262848
1339 1 0.201697 -24.884655 -26.262848
1340 1 1.475392 -22.656178 -26.262848
1341 1 0.175761 -20.427702 -26.262848
1342 1 1.449402 -18.199225 -26.262848
1343 1 0.150108 -15.970749 -26.262848
1344 1 1.424701 -13.742272 -26.262848
1345 1 0.127385 -11.513796 -26.262848
1346 1 1.405839 -9.285319 -26.262848
1347 1 0.116319 -7.056842 -26.262848
1348 1 1.412651 -4.828366 -26.262848
1349 1 0.177932 -2.599889 -26.262848
1350 1 1.793695 -0.371413 -26.262848
1351 1 1.061009 1.857064 -26.262848
1352 1 2.437714 4.085540 -26.262848
1353 1 1.169106 6.314017 -26.262848
1354 1 2.455760 8.542494 -26.262848
1355 1 1.162318 10.770970 -26.262848
1356 1 2.438892 12.999447 -26.262848
1357 1 1.140608 15.227923 -26.262848
1358 1 2.414707 17.456400 -26.262848
1359 1 1.115189 19.684876 -26.262848
1360 1 2.388777 21.913353 -26.262848
1361 1 1.089201 24.141830 -26.262848
1362 1 2.363027 26.370306 -26.262848
1363 1 1.063888 28.598783 -26.262848
1364 1 2.338287 30.827259 -26.262848
1365 1 1.039814 33.055736 -26.262848
1366 1 2.314940 35.284212 -26.262848
1367 1 1.017231 37.512689 -26.262848
1368 1 2.293142 39.741165 -26.262848
1369 1 0.996227 41.969642 -26.262848
1370 1 2.272928 44.198119 -26.262848
1371 1 0.976794 46.426595 -26.262848
1372 1 2.254261 48.655072 -26.262848
1373 1 0.958872 50.883548 -26.262848
1374 1 2.237062 53.112025 -26.262848
1375 1 0.942372 55.340501 -26.262848
1376 1 2.221235 57.568978 -26.262848
1377 1 0.927191 59.797455 -26.262848
1378 1 2.206674 62.025931 -26.262848
1379 1 0.913223 64.254408 -26.262848
1380 1 2.193272 66.482884 -26.262848
1381 1 -2.197617 -64.997233 -26.262848
1382 1 -0.917751 -62.768757 -26.262848
1383 1 -2.211393 -60.540280 -26.262848
1384 1 -0.932111 -58.311804 -26.262848
1385 1 -2.226365 -56.083327 -26.262848
1386 1 -0.947720 -53.854850 -26.262848
1387 1 -2.242637 -51.626374 -26.262848
1388 1 -0.964683 -49.397897 -26.262848
1389 1 -2.260316 -47.169421 -26.262848
1390 1 -0.983100 -44.940944 -26.262848
1391 1 -2.279492 -42.712468 -26.262848
1392 1 -1.003052 -40.483991 -26.262848
1393 1 -2.300232 -38.255514 -26.262848
1394 1 -1.024586 -36.027038 -26.262848
1395 1 -2.322554 -33.798561 -26.262848
1396 1 -1.047681 -31.570085 -26.262848
1397 1 -2.346392 -29.341608 -26.262848
1398 1 -1.072208 -27.113132 -26.262848
1399 1 -2.371526 -24.884655 -26.262848
1400 1 -1.097831 -22.656178 -26.262848
1401 1 -2.397462 -20.427702 -26.262848
1402 1 -1.123821 -18.199225 -26.262848
1403 1 -2.423115 -15.970749 -26.262848
1404 1 -1.148522 -13.742272 -26.262848
1405 1 -2.445839 -11.513796 -26.262848
1406 1 -1.167385 -9.285319 -26.262848
1407 1 -2.456904 -7.056842 -26.262848
1408 1 -1.160572 -4.828366 -26.262848
1409 1 -2.395291 -2.599889 -26.262848
1410 1 -0.779528 -0.371413 -26.262848
1411 1 -1.512214 1.857064 -26.262848
1412 1 -0.135509 4.085540 -26.262848
1413 1 -1.404117 6.314017 -26.262848
1414 1 -0.117463 8.542494 -26.262848
1415 1 -1.410905 10.770970 -26.262848
1416 1 -0.134331 12.999447 -26.262848
1417 1 -1.432615 15.227923 -26.262848
1418 1 -0.158516 17.456400 -26.262848
1419 1 -1.458034 19.684876 -26.262848
1420 1 -0.184446 21.913353 -26.262848
1421 1 -1.484022 24.141830 -26.262848
1422 1 -0.210196 26.370306 -26.262848
1423 1 -1.509335 28.598783 -26.262848
1424 1 -0.234936 30.827259 -26.262848
1425 1 -1.533409 33.055736 -26.262848
1426 1 -0.258283 35.284212 -26.262848
1427 1 -1.555992 37.512689 -26.262848
1428 1 -0.280081 39.741165 -26.262848
1429 1 -1.576996 41.969642 -26.262848
1430 1 -0.300295 44.198119 -26.262848
1431 1 -1.596429 46.426595 -26.262848
1432 1 -0.318962 48.655072 -26.262848
1433 1 -1.614351 50.883548 -26.262848
1434 1 -0.336161 53.112025 -26.262848
1435 1 -1.630851 55.340501 -26.262848
1436 1 -0.351988 57.568978 -26.262848
1437 1 -1.646032 59.797455 -26.262848
1438 1 -0.366549 62.025931 -26.262848
1439 1 -1.660000 64.254408 -26.262848
1440 1 -0.379951 66.482884 -26.262848
1441 1 -2.197998 -66.482884 -24.161820
1442 1 -0.918326 -64.254408 -24.161820
1443 1 -2.212192 -62.025931 -24.161820
1444 1 -0.933169 -59.797455 -24.161820
1445 1 -2.227722 -57.568978 -24.161820
1446 1 -0.949423 -55.340501 -24.161820
1447 1 -2.244739 -53.112025 -24.161820
1448 1 -0.967247 -50.883548 -24.161820
1449 1 -2.263415 -48.655072 -24.161820
1450 1 -0.986821 -46.426595 -24.161820
1451 1 -2.283934 -44.198119 -24.161820
1452 1 -1.008333 -41.969642 -24.161820
1453 1 -2.306492 -39.741165 -24.161820
1454 1 -1.031990 -37.512689 -24.161820
1455 1 -2.331302 -35.284212 -24.161820
1456 1 -1.058010 -33.055736 -24.161820
1457 1 -2.358593 -30.827259 -24.161820
1458 1 -1.086638 -28.598783 -24.161820
1459 1 -2.388630 -26.370306 -24.161820
1460 1 -1.118172 -24.141830 -24.161820
1461 1 -2.421774 -21.913353 -24.161820
1462 1 -1.153077 -19.684876 -24.161820
1463 1 -2.458662 -17.456400 -24.161820
1464 1 -1.192300 -15.227923 -24.161820
1465 1 -2.500814 -12.999447 -24.161820
1466 1 -1.238466 -10.770970 -24.161820
1467 1 -2.553172 -8.542494 -24.161820
1468 1 -1.302042 -6.314017 -24.161820
1469 1 -2.642484 -4.085540 -24.161820
1470 1 -1.482049 -1.857064 -24.161820
1471 1 -0.785564 0.371413 -24.161820
1472 1 0.135720 2.599889 -24.161820
1473 1 -1.238797 4.828366 -24.161820
1474 1 0.002381 7.056842 -24.161820
1475 1 -1.316603 9.285319 -24.161820
1476 1 -0.056563 11.513796 -24.161820
1477 1 -1.366539 13.742272 -24.161820
1478 1 -0.101222 15.970749 -24.161820
1479 1 -1.407626 18.199225 -24.161820
1480 1 -0.139616 20.427702 -24.161820
1481 1 -1.443822 22.656178 -24.161820
1482 1 -0.173913 24.884655 -24.161820
1483 1 -1.476415 27.113132 -24.161820
1484 1 -0.204938 29.341608 -24.161820
1485 1 -1.505973 31.570085 -24.161820
1486 1 -0.233112 33.798561 -24.161820
1487 1 -1.532834 36.027038 -24.161820
1488 1 -0.258722 38.255514 -24.161820
1489 1 -1.557253 40.483991 -24.161820
1490 1 -0.282007 42.712468 -24.161820
1491 1 -1.579457 44.940944 -24.161820
1492 1 -0.303183 47.169421 -24.161820
1493 1 -1.599655 49.397897 -24.161820
1494 1 -0.322451 51.626374 -24.161820
1495 1 -1.618042 53.854850 -24.161820
1496 1 -0.340002 56.083327 -24.161820
1497 1 -1.634800 58.311804 -24.161820
1498 1 -0.356010 60.540280 -24.161820
1499 1 -1.650097 62.768757 -24.161820
1500 1 -0.370633 64.997233 -24.161820
1501 1 0.375226 -66.482884 -24.161820
1502 1 1.654897 -64.254408 -24.161820
1503 1 0.361031 -62.025931 -24.161820
1504 1 1.640054 -59.797455 -24.161820
1505 1 0.345501 -57.568978 -24.161820
1506 1 1.623800 -55.340501 -24.161820
1507 1 0.328484 -53.112025 -24.161820
1508 1 1.605976 -50.883548 -24.161820
1509 1 0.309808 -48.655072 -24.161820
1510 1 1.586403 -46.426595 -24.161820
1511 1 0.289290 -44.198119 -24.161820
1512 1 1.564890 -41.969642 -24.161820
1513 1 0.266731 -39.741165 -24.161820
1514 1 1.541233 -37.512689 -24.161820
1515 1 0.241921 -35.284212 -24.161820
1516 1 1.515213 -33.055736 -24.161820
1517 1 0.214630 -30.827259 -24.161820
1518 1 1.486586 -28.598783 -24.161820
1519 1 0.184593 -26.370306 -24.161820
1520 1 1.455051 -24.141830 -24.161820
1521 1 0.151449 -21.913353 -24.161820
1522 1 1.420146 -19.684876 -24.161820
1523 1 0.114561 -17.456400 -24.161820
1524 1 1.380923 -15.227923 -24.161820
1525 1 0.072409 -12.999447 -24.161820
1526 1 1.334757 -10.770970 -24.161820
1527 1 0.020051 -8.542494 -24.161820
1528 1 1.271181 -6.314017 -24.161820
1529 1 -0.069261 -4.085540 -24.161820
1530 1 1.091174 -1.857064 -24.161820
1531 1 1.787659 0.371413 -24.161820
1532 1 2.708943 2.599889 -24.161820
1533 1 1.334426 4.828366 -24.161820
1534 1 2.575605 7.056842 -24.161820
1535 1 1.256620 9.285319 -24.161820
1536 1 2.516660 11.513796 -24.161820
1537 1 1.206684 13.742272 -24.161820
1538 1 2.472001 15.970749 -24.161820
1539 1 1.165597 18.199225 -24.161820
1540 1 2.433607 20.427702 -24.161820
1541 1 1.129401 22.656178 -24.161820
1542 1 2.399310 24.884655 -24.161820
1543 1 1.096808 27.113132 -24.161820
1544 1 2.368285 29.341608 -24.161820
1545 1 1.067250 31.570085 -24.161820
1546 1 2.340111 33.798561 -24.161820
1547 1 1.040390 36.027038 -24.161820
1548 1 2.314501 38.255514 -24.161820
1549 1 1.015970 40.483991 -24.161820
1550 1 2.291216 42.712468 -24.161820
1551 1 0.993766 44.940944 -24.161820
1552 1 2.270041 47.169421 -24.161820
1553 1 0.973568 49.397897 -24.161820
1554 1 2.250772 51.626374 -24.161820
1555 1 0.955181 53.854850 -24.161820
1556 1 2.233221 56.083327 -24.161820
1557 1 0.938423 58.311804 -24.161820
1558 1 2.217213 60.540280 -24.161820
1559 1 0.923126 62.768757 -24.161820
1560 1 2.202590 64.997233 -24.161820
1561 1 -0.918242 -65.740059 -22.060793
1562 1 0.360952 -63.511582 -22.060793
1563 1 -0.933437 -61.283106 -22.060793
1564 1 0.345012 -59.054629 -22.060793
1565 1 -0.950170 -56.826153 -22.060793
1566 1 0.327435 -54.597676 -22.060793
1567 1 -0.968648 -52.369199 -22.060793
1568 1 0.307998 -50.140723 -22.060793
1569 1 -0.989109 -47.912246 -22.060793
1570 1 0.286443 -45.683770 -22.060793
1571 1 -1.011831 -43.455293 -22.060793
1572 1 0.262470 -41.226817 -22.060793
1573 1 -1.037144 -38.998340 -22.060793
1574 1 0.235718 -36.769863 -22.060793
1575 1 -1.065446 -34.541387 -22.060793
1576 1 0.205740 -32.312910 -22.060793
1577 1 -1.097249 -30.084434 -22.060793
1578 1 0.171935 -27.855957 -22.060793
1579 1 -1.133276 -25.627481 -22.060793
1580 1 0.133403 -23.399004 -22.060793
1581 1 -1.174695 -21.170527 -22.060793
1582 1 0.088558 -18.942051 -22.060793
1583 1 -1.223762 -16.713574 -22.060793
1584 1 0.034032 -14.485098 -22.060793
1585 1 -1.285789 -12.256621 -22.060793
1586 1 -0.039096 -10.028145 -22.060793
1587 1 -1.376909 -7.799668 -22.060793
1588 1 -0.162791 -5.571191 -22.060793
1589 1 -1.567301 -3.342715 -22.060793
1590 1 -0.494477 -1.114238 -22.060793
1591 1 0.494477 1.114238 -22.060793
1592 1 1.567301 3.342715 -22.060793
1593 1 0.162791 5.571191 -22.060793
1594 1 1.376909 7.799668 -22.060793
1595 1 0.039096 10.028145 -22.060793
1596 1 1.285789 12.256621 -22.060793
1597 1 -0.034032 14.485098 -22.060793
1598 1 1.223762 16.713574 -22.060793
1599 1 -0.088558 18.942051 -22.060793
1600 1 1.174695 21.170527 -22.060793
1601 1 -0.133403 23.399004 -22.060793
1602 1 1.133276 25.627481 -22.060793
1603 1 -0.171935 27.855957 -22.060793
1604 1 1.097249 30.084434 -22.060793
1605 1 -0.205740 32.312910 -22.060793
1606 1 1.065446 34.541387 -22.060793
1607 1 -0.235718 36.769863 -22.060793
1608 1 1.037144 38.998340 -22.060793
1609 1 -0.262470 41.226817 -22.060793
1610 1 1.011831 43.455293 -22.060793
1611 1 -0.286443 45.683770 -22.060793
1612 1 0.989109 47.912246 -22.060793
1613 1 -0.307998 50.140723 -22.060793
1614 1 0.968648 52.369199 -22.060793
1615 1 -0.327435 54.597676 -22.060793
1616 1 0.950170 56.826153 -22.060793
1617 1 -0.345012 59.054629 -22.060793
1618 1 0.933437 61.283106 -22.060793
1619 1 -0.360952 63.511582 -22.060793
1620 1 0.918242 65.740059 -22.060793
1621 1 1.654981 -65.740059 -22.060793
1622 1 -2.212271 -63.511582 -22.060793
1623 1 1.639786 -61.283106 -22.060793
1624 1 -2.228211 -59.054629 -22.060793
1625 1 1.623053 -56.826153 -22.060793
1626 1 -2.245788 -54.597676 -22.060793
1627 1 1.604575 -52.369199 -22.060793
1628 1 -2.265225 -50.140723 -22.060793
1629 1 1.584114 -47.912246 -22.060793
1630 1 -2.286780 -45.683770 -22.060793
1631 1 1.561392 -43.455293 -22.060793
1632 1 -2.310753 -41.226817 -22.060793
1633 1 1.536079 -38.998340 -22.060793
1634 1 -2.337505 -36.769863 -22.060793
1635 1 1.507777 -34.541387 -22.060793
1636 1 -2.367483 -32.312910 -22.060793
1637 1 1.475974 -30.084434 -22.060793
1638 1 -2.401288 -27.855957 -22.060793
1639 1 1.439947 -25.627481 -22.060793
1640 1 -2.439820 -23.399004 -22.060793
1641 1 1.398528 -21.170527 -22.060793
1642 1 -2.484665 -18.942051 -22.060793
1643 1 1.349461 -16.713574 -22.060793
1644 1 -2.539191 -14.485098 -22.060793
1645 1 1.287434 -12.256621 -22.060793
1646 1 -2.612319 -10.028145 -22.060793
1647 1 1.196314 -7.799668 -22.060793
1648 1 -2.736014 -5.571191 -22.060793
1649 1 1.005922 -3.342715 -22.060793
1650 1 -3.067700 -1.114238 -22.060793
1651 1 3.067700 1.114238 -22.060793
1652 1 -1.005922 3.342715 -22.060793
1653 1 2.736014 5.571191 -22.060793
1654 1 -1.196314 7.799668 -22.060793
1655 1 2.612319 10.028145 -22.060793
1656 1 -1.287434 12.256621 -22.060793
1657 1 2.539191 14.485098 -22.060793
1658 1 -1.349461 16.713574 -22.060793
1659 1 2.484665 18.942051 -22.060793
1660 1 -1.398528 21.170527 -22.060793
1661 1 2.439820 23.399004 -22.060793
1662 1 -1.439947 25.627481 -22.060793
1663 1 2.401288 27.855957 -22.060793
1664 1 -1.475974 30.084434 -22.060793
1665 1 2.367483 32.312910 -22.060793
1666 1 -1.507777 34.541387 -22.060793
1667 1 2.337505 36.769863 -22.060793
1668 1 -1.536079 38.998340 -22.060793
1669 1 2.310753 41.226817 -22.060793
1670 1 -1.561392 43.455293 -22.060793
1671 1 2.286780 45.683770 -22.060793
1672 1 -1.584114 47.912246 -22.060793
1673 1 2.265225 50.140723 -22.060793
1674 1 -1.604575 52.369199 -22.060793
1675 1 2.245788 54.597676 -22.060793
1676 1 -1.623053 56.826153 -22.060793
1677 1 2.228211 59.054629 -22.060793
1678 1 -1.639786 61.283106 -22.060793
1679 1 2.212271 63.511582 -22.060793
1680 1 -1.654981 65.740059 -22.060793
1681 1 0.361546 -64.997233 -19.959765
1682 1 1.640255 -62.768757 -19.959765
1683 1 0.345333 -60.540280 -19.959765
1684 1 1.623197 -58.311804 -19.959765
1685 1 0.327371 -56.083327 -19.959765
1686 1 1.604264 -53.854850 -19.959765
1687 1 0.307395 -51.626374 -19.959765
1688 1 1.583168 -49.397897 -19.959765
1689 1 0.285092 -47.169421 -19.959765
1690 1 1.559564 -44.940944 -19.959765
1691 1 0.260082 -42.712468 -19.959765
1692 1 1.533031 -40.483991 -19.959765
1693 1 0.231896 -38.255514 -19.959765
1694 1 1.503042 -36.027038 -19.959765
1695 1 0.199932 -33.798561 -19.959765
1696 1 1.468902 -31.570085 -19.959765
1697 1 0.163375 -29.341608 -19.959765
1698 1 1.429633 -27.113132 -19.959765
1699 1 0.121019 -24.884655 -19.959765
1700 1 1.383704 -22.656178 -19.959765
1701 1 0.070859 -20.427702 -19.959765
1702 1 1.328390 -18.199225 -19.959765
1703 1 0.009048 -15.970749 -19.959765
1704 1 1.258041 -13.742272 -19.959765
1705 1 -0.073072 -11.513796 -19.959765
1706 1 1.158804 -9.285319 -19.959765
1707 1 -0.198582 -7.056842 -19.959765
1708 1 0.991345 -4.828366 -19.959765
1709 1 -0.431527 -2.599889 -19.959765
1710 1 0.675584 -0.371413 -19.959765
1711 1 1.773913 1.857064 -19.959765
1712 1 2.908854 4.085540 -19.959765
1713 1 1.513911 6.314017 -19.959765
1714 1 2.722453 8.542494 -19.959765
1715 1 1.376569 10.770970 -19.959765
1716 1 2.615732 12.999447 -19.959765
1717 1 1.289481 15.227923 -19.959765
1718 1 2.541899 17.456400 -19.959765
1719 1 1.225097 19.684876 -19.959765
1720 1 2.484596 21.913353 -19.959765
1721 1 1.173338 24.141830 -19.959765
1722 1 2.437341 26.370306 -19.959765
1723 1 1.129852 28.598783 -19.959765
1724 1 2.397089 30.827259 -19.959765
1725 1 1.092427 33.055736 -19.959765
1726 1 2.362172 35.284212 -19.959765
1727 1 1.059762 37.512689 -19.959765
1728 1 2.331545 39.741165 -19.959765
1729 1 1.030992 41.969642 -19.959765
1730 1 2.304477 44.198119 -19.959765
1731 1 1.005488 46.426595 -19.959765
1732 1 2.280416 48.655072 -19.959765
1733 1 0.982763 50.883548 -19.959765
1734 1 2.258928 53.112025 -19.959765
1735 1 0.962423 55.340501 -19.959765
1736 1 2.239655 57.568978 -19.959765
1737 1 0.944144 59.797455 -19.959765
1738 1 2.222303 62.025931 -19.959765
1739 1 0.927656 64.254408 -19.959765
1740 1 2.206622 66.482884 -19.959765
1741 1 -2.211677 -64.997233 -19.959765
1742 1 -0.932968 -62.768757 -19.959765
1743 1 -2.227890 -60.540280 -19.959765
1744 1 -0.950026 -58.311804 -19.959765
1745 1 -2.245853 -56.083327 -19.959765
1746 1 -0.968959 -53.854850 -19.959765
1747 1 -2.265828 -51.626374 -19.959765
1748 1 -0.990055 -49.397897 -19.959765
1749 1 -2.288131 -47.169421 -19.959765
1750 1 -1.013659 -44.940944 -19.959765
1751 1 -2.313141 -42.712468 -19.959765
1752 1 -1.040192 -40.483991 -19.959765
1753 1 -2.341327 -38.255514 -19.959765
1754 1 -1.070181 -36.027038 -19.959765
1755 1 -2.373291 -33.798561 -19.959765
1756 1 -1.104321 -31.570085 -19.959765
1757 1 -2.409848 -29.341608 -19.959765
1758 1 -1.143590 -27.113132 -19.959765
1759 1 -2.452204 -24.884655 -19.959765
1760 1 -1.189519 -22.656178 -19.959765
1761 1 -2.502364 -20.427702 -19.959765
1762 1 -1.244833 -18.199225 -19.959765
1763 1 -2.564175 -15.970749 -19.959765
1764 1 -1.315182 -13.742272 -19.959765
1765 1 -2.646295 -11.513796 -19.959765
1766 1 -1.414419 -9.285319 -19.959765
1767 1 -2.771805 -7.056842 -19.959765
1768 1 -1.581878 -4.828366 -19.959765
1769 1 -3.004751 -2.599889 -19.959765
1770 1 -1.897639 -0.371413 -19.959765
1771 1 -0.799310 1.857064 -19.959765
1772 1 0.335631 4.085540 -19.959765
1773 1 -1.059313 6.314017 -19.959765
1774 1 0.149230 8.542494 -19.959765
1775 1 -1.196654 10.770970 -19.959765
1776 1 0.042509 12.999447 -19.959765
1777 1 -1.283742 15.227923 -19.959765
1778 1 -0.031324 17.456400 -19.959765
1779 1 -1.348126 19.684876 -19.959765
1780 1 -0.088627 21.913353 -19.959765
1781 1 -1.399885 24.141830 -19.959765
1782 1 -0.135882 26.370306 -19.959765
1783 1 -1.443371 28.598783 -19.959765
1784 1 -0.176134 30.827259 -19.959765
1785 1 -1.480796 33.055736 -19.959765
1786 1 -0.211051 35.284212 -19.959765
1787 1 -1.513461 37.512689 -19.959765
1788 1 -0.241678 39.741165 -19.959765
1789 1 -1.542231 41.969642 -19.959765
1790 1 -0.268747 44.198119 -19.959765
1791 1 -1.567735 46.426595 -19.959765
1792 1 -0.292807 48.655072 -19.959765
1793 1 -1.590460 50.883548 -19.959765
1794 1 -0.314295 53.112025 -19.959765
1795 1 -1.610800 55.340501 -19.959765
1796 1 -0.333568 57.568978 -19.959765
1797 1 -1.629079 59.797455 -19.959765
1798 1 -0.350920 62.025931 -19.959765
1799 1 -1.645567 64.254408 -19.959765
1800 1 -0.366601 66.482884 -19.959765
1801 1 -2.210463 -66.482884 -17.858737
1802 1 -0.931818 -64.254408 -17.858737
1803 1 -2.226821 -62.025931 -17.858737
1804 1 -0.949057 -59.797455 -17.858737
1805 1 -2.245007 -57.568978 -17.858737
1806 1 -0.968264 -55.340501 -17.858737
1807 1 -2.265315 -53.112025 -17.858737
1808 1 -0.989762 -50.883548 -17.858737
1809 1 -2.288101 -48.655072 -17.858737
1810 1 -1.013945 -46.426595 -17.858737
1811 1 -2.313802 -44.198119 -17.858737
1812 1 -1.041298 -41.969642 -17.858737
1813 1 -2.342962 -39.741165 -17.858737
1814 1 -1.072440 -37.512689 -17.858737
1815 1 -2.376285 -35.284212 -17.858737
1816 1 -1.108178 -33.055736 -17.858737
1817 1 -2.414715 -30.827259 -17.858737
1818 1 -1.149632 -28.598783 -17.858737
1819 1 -2.459605 -26.370306 -17.858737
1820 1 -1.198476 -24.141830 -17.858737
1821 1 -2.513073 -21.913353 -17.858737
1822 1 -1.257463 -19.684876 -17.858737
1823 1 -2.578807 -17.456400 -17.858737
1824 1 -1.331677 -15.227923 -17.858737
1825 1 -2.664013 -12.999447 -17.858737
1826 1 -1.431584 -10.770970 -17.858737
1827 1 -2.784117 -8.542494 -17.858737
1828 1 -1.579743 -6.314017 -17.858737
1829 1 -2.970111 -4.085540 -17.858737
1830 1 -1.810964 -1.857064 -17.858737
1831 1 -0.667505 0.371413 -17.858737
1832 1 0.479437 2.599889 -17.858737
1833 1 -0.926969 4.828366 -17.858737
1834 1 0.263576 7.056842 -17.858737
1835 1 -1.099252 9.285319 -17.858737
1836 1 0.125795 11.513796 -17.858737
1837 1 -1.211875 13.742272 -17.858737
1838 1 0.031297 15.970749 -17.858737
1839 1 -1.293075 18.199225 -17.858737
1840 1 -0.039857 20.427702 -17.858737
1841 1 -1.356397 22.656178 -17.858737
1842 1 -0.096887 24.884655 -17.858737
1843 1 -1.408237 27.113132 -17.858737
1844 1 -0.144347 29.341608 -17.858737
1845 1 -1.451930 31.570085 -17.858737
1846 1 -0.184752 33.798561 -17.858737
1847 1 -1.489429 36.027038 -17.858737
1848 1 -0.219657 38.255514 -17.858737
1849 1 -1.522000 40.483991 -17.858737
1850 1 -0.250117 42.712468 -17.858737
1851 1 -1.550540 44.940944 -17.858737
1852 1 -0.276903 47.169421 -17.858737
1853 1 -1.575720 49.397897 -17.858737
1854 1 -0.300607 51.626374 -17.858737
1855 1 -1.598066 53.854850 -17.858737
1856 1 -0.321698 56.083327 -17.858737
1857 1 -1.617997 58.311804 -17.858737
1858 1 -0.340557 60.540280 -17.858737
1859 1 -1.635860 62.768757 -17.858737
1860 1 -0.357494 64.997233 -17.858737
1861 1 0.362760 -66.482884 -17.858737
1862 1 1.641405 -64.254408 -17.858737
1863 1 0.346402 -62.025931 -17.858737
1864 1 1.624166 -59.797455 -17.858737
1865 1 0.328216 -57.568978 -17.858737
1866 1 1.604959 -55.340501 -17.858737
1867 1 0.307908 -53.112025 -17.858737
1868 1 1.583461 -50.883548 -17.858737
1869 1 0.285122 -48.655072 -17.858737
1870 1 1.559279 -46.426595 -17.858737
1871 1 0.259421 -44.198119 -17.858737
1872 1 1.531925 -41.969642 -17.858737
1873 1 0.230261 -39.741165 -17.858737
1874 1 1.500783 -37.512689 -17.858737
1875 1 0.196938 -35.284212 -17.858737
1876 1 1.465045 -33.055736 -17.858737
1877 1 0.158509 -30.827259 -17.858737
1878 1 1.423591 -28.598783 -17.858737
1879 1 0.113618 -26.370306 -17.858737
1880 1 1.374747 -24.141830 -17.858737
1881 1 0.060150 -21.913353 -17.858737
1882 1 1.315760 -19.684876 -17.858737
1883 1 -0.005583 -17.456400 -17.858737
1884 1 1.241546 -15.227923 -17.858737
1885 1 -0.090790 -12.999447 -17.858737
1886 1 1.141639 -10.770970 -17.858737
1887 1 -0.210894 -8.542494 -17.858737
1888 1 0.993480 -6.314017 -17.858737
1889 1 -0.396888 -4.085540 -17.858737
1890 1 0.762259 -1.857064 -17.858737
1891 1 1.905718 0.371413 -17.858737
1892 1 3.052661 2.599889 -17.858737
1893 1 1.646254 4.828366 -17.858737
1894 1 2.836799 7.056842 -17.858737
1895 1 1.473971 9.285319 -17.858737
1896 1 2.699018 11.513796 -17.858737
1897 1 1.361348 13.742272 -17.858737
1898 1 2.604520 15.970749 -17.858737
1899 1 1.280148 18.199225 -17.858737
1900 1 2.533366 20.427702 -17.858737
1901 1 1.216826 22.656178 -17.858737
1902 1 2.476336 24.884655 -17.858737
1903 1 1.164986 27.113132 -17.858737
1904 1 2.428876 29.341608 -17.858737
1905 1 1.121293 31.570085 -17.858737
1906 1 2.388471 33.798561 -17.858737
1907 1 1.083794 36.027038 -17.858737
1908 1 2.353567 38.255514 -17.858737
1909 1 1.051223 40.483991 -17.858737
1910 1 2.323106 42.712468 -17.858737
1911 1 1.022683 44.940944 -17.858737
1912 1 2.296320 47.169421 -17.858737
1913 1 0.997503 49.397897 -17.858737
1914 1 2.272616 51.626374 -17.858737
1915 1 0.975158 53.854850 -17.858737
1916 1 2.251525 56.083327 -17.858737
1917 1 0.955226 58.311804 -17.858737
1918 1 2.232667 60.540280 -17.858737
1919 1 0.937363 62.768757 -17.858737
1920 1 2.215729 64.997233 -17.858737
1921 1 -0.930047 -65.740059 -15.757709
1922 1 0.348154 -63.511582 -15.757709
1923 1 -0.947336 -61.283106 -15.757709
1924 1 0.329891 -59.054629 -15.757709
1925 1 -0.966651 -56.826153 -15.757709
1926 1 0.309438 -54.597676 -15.757709
1927 1 -0.988339 -52.369199 -15.757709
1928 1 0.286409 -50.140723 -15.757709
1929 1 -1.012827 -47.912246 -15.757709
1930 1 0.260331 -45.683770 -15.757709
1931 1 -1.040643 -43.455293 -15.757709
1932 1 0.230608 -41.226817 -15.757709
1933 1 -1.072463 -38.998340 -15.757709
1934 1 0.196475 -36.769863 -15.757709
1935 1 -1.109160 -34.541387 -15.757709
1936 1 0.156920 -32.312910 -15.757709
1937 1 -1.151920 -30.084434 -15.757709
1938 1 0.110537 -27.855957 -15.757709
1939 1 -1.202436 -25.627481 -15.757709
1940 1 0.055253 -23.399004 -15.757709
1941 1 -1.263298 -21.170527 -15.757709
1942 1 -0.012240 -18.942051 -15.757709
1943 1 -1.338815 -16.713574 -15.757709
1944 1 -0.097653 -14.485098 -15.757709
1945 1 -1.436653 -12.256621 -15.757709
1946 1 -0.211291 -10.028145 -15.757709
1947 1 -1.570382 -7.799668 -15.757709
1948 1 -0.369882 -5.571191 -15.757709
1949 1 -1.757400 -3.342715 -15.757709
1950 1 -0.584127 -1.114238 -15.757709
1951 1 0.584127 1.114238 -15.757709
1952 1 1.757400 3.342715 -15.757709
1953 1 0.369882 5.571191 -15.757709
1954 1 1.570382 7.799668 -15.757709
1955 1 0.211291 10.028145 -15.757709
1956 1 1.436653 12.256621 -15.757709
1957 1 0.097653 14.485098 -15.757709
1958 1 1.338815 16.713574 -15.757709
1959 1 0.012240 18.942051 -15.757709
1960 1 1.263298 21.170527 -15.757709
1961 1 -0.055253 23.399004 -15.757709
1962 1 1.202436 25.627481 -15.757709
1963 1 -0.110537 27.855957 -15.757709
1964 1 1.151920 30.084434 -15.757709
1965 1 -0.156920 32.312910 -15.757709
1966 1 1.109160 34.541387 -15.757709
1967 1 -0.196475 36.769863 -15.757709
1968 1 1.072463 38.998340 -15.757709
1969 1 -0.230608 41.226817 -15.757709
1970 1 1.040643 43.455293 -15.757709
1971 1 -0.260331 45.683770 -15.757709
1972 1 1.012827 47.912246 -15.757709
1973 1 -0.286409 50.140723 -15.757709
1974 1 0.988339 52.369199 -15.757709
1975 1 -0.309438 54.597676 -15.757709
1976 1 0.966651 56.826153 -15.757709
1977 1 -0.329891 59.054629 -15.757709
1978 1 0.947336 61.283106 -15.757709
1979 1 -0.348154 63.511582 -15.757709
1980 1 0.930047 65.740059 -15.757709
1981 1 1.643176 -65.740059 -15.757709
1982 1 -2.225069 -63.511582 -15.757709
1983 1 1.625887 -61.283106 -15.757709
1984 1 -2.243332 -59.054629 -15.757709
1985 1 1.606572 -56.826153 -15.757709
1986 1 -2.263786 -54.597676 -15.757709
1987 1 1.584884 -52.369199 -15.757709
1988 1 -2.286814 -50.140723 -15.757709
1989 1 1.560397 -47.912246 -15.757709
1990 1 -2.312892 -45.683770 -15.757709
1991 1 1.532580 -43.455293 -15.757709
1992 1 -2.342615 -41.226817 -15.757709
1993 1 1.500760 -38.998340 -15.757709
1994 1 -2.376748 -36.769863 -15.757709
1995 1 1.464063 -34.541387 -15.757709
1996 1 -2.416303 -32.312910 -15.757709
1997 1 1.421303 -30.084434 -15.757709
1998 1 -2.462686 -27.855957 -15.757709
1999 1 1.370787 -25.627481 -15.757709
2000 1 -2.517970 -23.399004 -15.757709
2001 1 1.309925 -21.170527 -15.757709
2002 1 -2.585463 -18.942051 -15.757709
2003 1 1.234408 -16.713574 -15.757709
2004 1 -2.670876 -14.485098 -15.757709
2005 1 1.136570 -12.256621 -15.757709
2006 1 -2.784514 -10.028145 -15.757709
2007 1 1.002841 -7.799668 -15.757709
2008 1 -2.943105 -5.571191 -15.757709
2009 1 0.815823 -3.342715 -15.757709
2010 1 -3.157350 -1.114238 -15.757709
2011 1 3.157350 1.114238 -15.757709
2012 1 -0.815823 3.342715 -15.757709
2013 1 2.943105 5.571191 -15.757709
2014 1 -1.002841 7.799668 -15.757709
2015 1 2.784514 10.028145 -15.757709
2016 1 -1.136570 12.256621 -15.757709
2017 1 2.670876 14.485098 -15.757709
2018 1 -1.234408 16.713574 -15.757709
2019 1 2.585463 18.942051 -15.757709
2020 1 -1.309925 21.170527 -15.757709
2021 1 2.517970 23.399004 -15.757709
2022 1 -1.370787 25.627481 -15.757709
2023 1 2.462686 27.855957 -15.757709
2024 1 -1.421303 30.084434 -15.757709
2025 1 2.416303 32.312910 -15.757709
2026 1 -1.464063 34.541387 -15.757709
2027 1 2.376748 36.769863 -15.757709
2028 1 -1.500760 38.998340 -15.757709
2029 1 2.342615 41.226817 -15.757709
2030 1 -1.532580 43.455293 -15.757709
2031 1 2.312892 45.683770 -15.757709
2032 1 -1.560397 47.912246 -15.757709
2033 1 2.286814 50.140723 -15.757709
2034 1 -1.584884 52.369199 -15.757709
2035 1 2.263786 54.597676 -15.757709
2036 1 -1.606572 56.826153 -15.757709
2037 1 2.243332 59.054629 -15.757709
2038 1 -1.625887 61.283106 -15.757709
2039 1 2.225069 63.511582 -15.757709
2040 1 -1.643176 65.740059 -15.757709
2041 1 0.350523 -64.997233 -13.656681
2042 1 1.628287 -62.768757 -13.656681
2043 1 0.332315 -60.540280 -13.656681
2044 1 1.609012 -58.311804 -13.656681
2045 1 0.311884 -56.083327 -13.656681
2046 1 1.587323 -53.854850 -13.656681
2047 1 0.288827 -51.626374 -13.656681
2048 1 1.562775 -49.397897 -13.656681
2049 1 0.262648 -47.169421 -13.656681
2050 1 1.534811 -44.940944 -13.656681
2051 1 0.232724 -42.712468 -13.656681
2052 1 1.502728 -40.483991 -13.656681
2053 1 0.198256 -38.255514 -13.656681
2054 1 1.465617 -36.027038 -13.656681
2055 1 0.158204 -33.798561 -13.656681
2056 1 1.422277 -31.570085 -13.656681
2057 1 0.111167 -29.341608 -13.656681
2058 1 1.371056 -27.113132 -13.656681
2059 1 0.055177 -24.884655 -13.656681
2060 1 1.309582 -22.656178 -13.656681
2061 1 -0.012665 -20.427702 -13.656681
2062 1 1.234263 -18.199225 -13.656681
2063 1 -0.096857 -15.970749 -13.656681
2064 1 1.139447 -13.742272 -13.656681
2065 1 -0.204454 -11.513796 -13.656681
2066 1 1.016555 -9.285319 -13.656681
2067 1 -0.345227 -7.056842 -13.656681
2068 1 0.856011 -4.828366 -13.656681
2069 1 -0.525320 -2.599889 -13.656681
2070 1 0.660378 -0.371413 -13.656681
2071 1 1.845108 1.857064 -13.656681
2072 1 3.034462 4.085540 -13.656681
2073 1 1.659165 6.314017 -13.656681
2074 1 2.867222 8.542494 -13.656681
2075 1 1.511942 10.770970 -13.656681
2076 1 2.738645 12.999447 -13.656681
2077 1 1.399539 15.227923 -13.656681
2078 1 2.639828 17.456400 -13.656681
2079 1 1.312020 19.684876 -13.656681
2080 1 2.561722 21.913353 -13.656681
2081 1 1.241821 24.141830 -13.656681
2082 1 2.498234 26.370306 -13.656681
2083 1 1.184091 28.598783 -13.656681
2084 1 2.445494 30.827259 -13.656681
2085 1 1.135717 33.055736 -13.656681
2086 1 2.400970 35.284212 -13.656681
2087 1 1.094610 37.512689 -13.656681
2088 1 2.362915 39.741165 -13.656681
2089 1 1.059292 41.969642 -13.656681
2090 1 2.330063 44.198119 -13.656681
2091 1 1.028671 46.426595 -13.656681
2092 1 2.301466 48.655072 -13.656681
2093 1 1.001916 50.883548 -13.656681
2094 1 2.276391 53.112025 -13.656681
2095 1 0.978376 55.340501 -13.656681
2096 1 2.254259 57.568978 -13.656681
2097 1 0.957537 59.797455 -13.656681
2098 1 2.234609 62.025931 -13.656681
2099 1 0.938983 64.254408 -13.656681
2100 1 2.217067 66.482884 -13.656681
2101 1 -2.222700 -64.997233 -13.656681
2102 1 -0.944936 -62.768757 -13.656681
2103 1 -2.240908 -60.540280 -13.656681
2104 1 -0.964211 -58.311804 -13.656681
2105 1 -2.261340 -56.083327 -13.656681
2106 1 -0.985900 -53.854850 -13.656681
2107 1 -2.284396 -51.626374 -13.656681
2108 1 -1.010448 -49.397897 -13.656681
2109 1 -2.310575 -47.169421 -13.656681
2110 1 -1.038412 -44.940944 -13.656681
2111 1 -2.340499 -42.712468 -13.656681
2112 1 -1.070495 -40.483991 -13.656681
2113 1 -2.374967 -38.255514 -13.656681
2114 1 -1.107606 -36.027038 -13.656681
2115 1 -2.415019 -33.798561 -13.656681
2116 1 -1.150946 -31.570085 -13.656681
2117 1 -2.462056 -29.341608 -13.656681
2118 1 -1.202167 -27.113132 -13.656681
2119 1 -2.518046 -24.884655 -13.656681
2120 1 -1.263641 -22.656178 -13.656681
2121 1 -2.585889 -20.427702 -13.656681
2122 1 -1.338960 -18.199225 -13.656681
2123 1 -2.670080 -15.970749 -13.656681
2124 1 -1.433776 -13.742272 -13.656681
2125 1 -2.777677 -11.513796 -13.656681
2126 1 -1.556669 -9.285319 -13.656681
2127 1 -2.918450 -7.056842 -13.656681
2128 1 -1.717212 -4.828366 -13.656681
2129 1 -3.098543 -2.599889 -13.656681
2130 1 -1.912845 -0.371413 -13.656681
2131 1 -0.728116 1.857064 -13.656681
2132 1 0.461239 4.085540 -13.656681
2133 1 -0.914059 6.314017 -13.656681
2134 1 0.293999 8.542494 -13.656681
2135 1 -1.061281 10.770970 -13.656681
2136 1 0.165422 12.999447 -13.656681
2137 1 -1.173684 15.227923 -13.656681
2138 1 0.066605 17.456400 -13.656681
2139 1 -1.261203 19.684876 -13.656681
2140 1 -0.011501 21.913353 -13.656681
2141 1 -1.331402 24.141830 -13.656681
2142 1 -0.074989 26.370306 -13.656681
2143 1 -1.389133 28.598783 -13.656681
2144 1 -0.127729 30.827259 -13.656681
2145 1 -1.437506 33.055736 -13.656681
2146 1 -0.172253 35.284212 -13.656681
2147 1 -1.478613 37.512689 -13.656681
2148 1 -0.210308 39.741165 -13.656681
2149 1 -1.513931 41.969642 -13.656681
2150 1 -0.243160 44.198119 -13.656681
2151 1 -1.544552 46.426595 -13.656681
2152 1 -0.271757 48.655072 -13.656681
2153 1 -1.571307 50.883548 -13.656681
2154 1 -0.296832 53.112025 -13.656681
2155 1 -1.594847 55.340501 -13.656681
2156 1 -0.318964 57.568978 -13.656681
2157 1 -1.615686 59.797455 -13.656681
2158 1 -0.338614 62.025931 -13.656681
2159 1 -1.634240 64.254408 -13.656681
2160 1 -0.356157 66.482884 -13.656681
2161 1 -2.219781 -66.482884 -11.555653
2162 1 -0.941931 -64.254408 -11.555653
2163 1 -2.237817 -62.025931 -11.555653
2164 1 -0.961035 -59.797455 -11.555653
2165 1 -2.258079 -57.568978 -11.555653
2166 1 -0.982558 -55.340501 -11.555653
2167 1 -2.280975 -53.112025 -11.555653
2168 1 -1.006953 -50.883548 -11.555653
2169 1 -2.307012 -48.655072 -11.555653
2170 1 -1.034789 -46.426595 -11.555653
2171 1 -2.336824 -44.198119 -11.555653
2172 1 -1.066779 -41.969642 -11.555653
2173 1 -2.371221 -39.741165 -11.555653
2174 1 -1.103840 -37.512689 -11.555653
2175 1 -2.411243 -35.284212 -11.555653
2176 1 -1.147163 -33.055736 -11.555653
2177 1 -2.458259 -30.827259 -11.555653
2178 1 -1.198331 -28.598783 -11.555653
2179 1 -2.514113 -26.370306 -11.555653
2180 1 -1.259502 -24.141830 -11.555653
2181 1 -2.581351 -21.913353 -11.555653
2182 1 -1.333700 -19.684876 -11.555653
2183 1 -2.663573 -17.456400 -11.555653
2184 1 -1.425200 -15.227923 -11.555653
2185 1 -2.765794 -12.999447 -11.555653
2186 1 -1.539714 -10.770970 -11.555653
2187 1 -2.894115 -8.542494 -11.555653
2188 1 -1.682909 -6.314017 -11.555653
2189 1 -3.052160 -4.085540 -11.555653
2190 1 -1.853899 -1.857064 -11.555653
2191 1 -0.658578 0.371413 -11.555653
2192 1 0.537351 2.599889 -11.555653
2193 1 -0.835958 4.828366 -11.555653
2194 1 0.370319 7.056842 -11.555653
2195 1 -0.989156 9.285319 -11.555653
2196 1 0.232150 11.513796 -11.555653
2197 1 -1.112723 13.742272 -11.555653
2198 1 0.121910 15.970749 -11.555653
2199 1 -1.211200 18.199225 -11.555653
2200 1 0.033655 20.427702 -11.555653
2201 1 -1.290617 22.656178 -11.555653
2202 1 -0.038114 24.884655 -11.555653
2203 1 -1.355741 27.113132 -11.555653
2204 1 -0.097436 29.341608 -11.555653
2205 1 -1.409968 31.570085 -11.555653
2206 1 -0.147165 33.798561 -11.555653
2207 1 -1.455706 36.027038 -11.555653
2208 1 -0.189347 38.255514 -11.555653
2209 1 -1.494706 40.483991 -11.555653
2210 1 -0.225489 42.712468 -11.555653
2211 1 -1.528273 44.940944 -11.555653
2212 1 -0.256729 47.169421 -11.555653
2213 1 -1.557405 49.397897 -11.555653
2214 1 -0.283946 51.626374 -11.555653
2215 1 -1.582878 53.854850 -11.555653
2216 1 -0.307827 56.083327 -11.555653
2217 1 -1.605303 58.311804 -11.555653
2218 1 -0.328918 60.540280 -11.555653
2219 1 -1.625169 62.768757 -11.555653
2220 1 -0.347656 64.997233 -11.555653
2221 1 0.353442 -66.482884 -11.555653
2222 1 1.631292 -64.254408 -11.555653
2223 1 0.335406 -62.025931 -11.555653
2224 1 1.612188 -59.797455 -11.555653
2225 1 0.315144 -57.568978 -11.555653
2226 1 1.590666 -55.340501 -11.555653
2227 1 0.292248 -53.112025 -11.555653
2228 1 1.566270 -50.883548 -11.555653
2229 1 0.266211 -48.655072 -11.555653
2230 1 1.538434 -46.426595 -11.555653
2231 1 0.236399 -44.198119 -11.555653
2232 1 1.506444 -41.969642 -11.555653
2233 1 0.202002 -39.741165 -11.555653
2234 1 1.469383 -37.512689 -11.555653
2235 1 0.161980 -35.284212 -11.555653
2236 1 1.426060 -33.055736 -11.555653
2237 1 0.114964 -30.827259 -11.555653
2238 1 1.374892 -28.598783 -11.555653
2239 1 0.059110 -26.370306 -11.555653
2240 1 1.313721 -24.141830 -11.555653
2241 1 -0.008128 -21.913353 -11.555653
2242 1 1.239523 -19.684876 -11.555653
2243 1 -0.090350 -17.456400 -11.555653
2244 1 1.148023 -15.227923 -11.555653
2245 1 -0.192571 -12.999447 -11.555653
2246 1 1.033509 -10.770970 -11.555653
2247 1 -0.320892 -8.542494 -11.555653
2248 1 0.890314 -6.314017 -11.555653
2249 1 -0.478937 -4.085540 -11.555653
2250 1 0.719324 -1.857064 -11.555653
2251 1 1.914645 0.371413 -11.555653
2252 1 3.110574 2.599889 -11.555653
2253 1 1.737265 4.828366 -11.555653
2254 1 2.943542 7.056842 -11.555653
2255 1 1.584067 9.285319 -11.555653
2256 1 2.805373 11.513796 -11.555653
2257 1 1.460500 13.742272 -11.555653
2258 1 2.695133 15.970749 -11.555653
2259 1 1.362023 18.199225 -11.555653
2260 1 2.606878 20.427702 -11.555653
2261 1 1.282606 22.656178 -11.555653
2262 1 2.535109 24.884655 -11.555653
2263 1 1.217482 27.113132 -11.555653
2264 1 2.475787 29.341608 -11.555653
2265 1 1.163255 31.570085 -11.555653
2266 1 2.426058 33.798561 -11.555653
2267 1 1.117517 36.027038 -11.555653
2268 1 2.383877 38.255514 -11.555653
2269 1 1.078517 40.483991 -11.555653
2270 1 2.347735 42.712468 -11.555653
2271 1 1.044950 44.940944 -11.555653
2272 1 2.316494 47.169421 -11.555653
2273 1 1.015818 49.397897 -11.555653
2274 1 2.289277 51.626374 -11.555653
2275 1 0.990345 53.854850 -11.555653
2276 1 2.265396 56.083327 -11.555653
2277 1 0.967920 58.311804 -11.555653
2278 1 2.244305 60.540280 -11.555653
2279 1 0.948055 62.768757 -11.555653
2280 1 2.225567 64.997233 -11.555653
2281 1 -0.938394 -65.740059 -9.454625
2282 1 0.339083 -63.511582 -9.454625
2283 1 -0.957212 -61.283106 -9.454625
2284 1 0.319118 -59.054629 -9.454625
2285 1 -0.978425 -56.826153 -9.454625
2286 1 0.296546 -54.597676 -9.454625
2287 1 -1.002483 -52.369199 -9.454625
2288 1 0.270860 -50.140723 -9.454625
2289 1 -1.029954 -47.912246 -9.454625
2290 1 0.241427 -45.683770 -9.454625
2291 1 -1.061548 -43.455293 -9.454625
2292 1 0.207446 -41.226817 -9.454625
2293 1 -1.098171 -38.998340 -9.454625
2294 1 0.167893 -36.769863 -9.454625
2295 1 -1.140984 -34.541387 -9.454625
2296 1 0.121445 -32.312910 -9.454625
2297 1 -1.191495 -30.084434 -9.454625
2298 1 0.066380 -27.855957 -9.454625
2299 1 -1.251678 -25.627481 -9.454625
2300 1 0.000431 -23.399004 -9.454625
2301 1 -1.324134 -21.170527 -9.454625
2302 1 -0.079373 -18.942051 -9.454625
2303 1 -1.412230 -16.713574 -9.454625
2304 1 -0.176785 -14.485098 -9.454625
2305 1 -1.520006 -12.256621 -9.454625
2306 1 -0.295877 -10.028145 -9.454625
2307 1 -1.651051 -7.799668 -9.454625
2308 1 -0.438871 -5.571191 -9.454625
2309 1 -1.804942 -3.342715 -9.454625
2310 1 -0.601236 -1.114238 -9.454625
2311 1 0.601236 1.114238 -9.454625
2312 1 1.804942 3.342715 -9.454625
2313 1 0.438871 5.571191 -9.454625
2314 1 1.651051 7.799668 -9.454625
2315 1 0.295877 10.028145 -9.454625
2316 1 1.520006 12.256621 -9.454625
2317 1 0.176785 14.485098 -9.454625
2318 1 1.412230 16.713574 -9.454625
2319 1 0.079373 18.942051 -9.454625
2320 1 1.324134 21.170527 -9.454625
2321 1 -0.000431 23.399004 -9.454625
2322 1 1.251678 25.627481 -9.454625
2323 1 -0.066380 27.855957 -9.454625
2324 1 1.191495 30.084434 -9.454625
2325 1 -0.121445 32.312910 -9.454625
2326 1 1.140984 34.541387 -9.454625
2327 1 -0.167893 36.769863 -9.454625
2328 1 1.098171 38.998340 -9.454625
2329 1 -0.207446 41.226817 -9.454625
2330 1 1.061548 43.455293 -9.454625
2331 1 -0.241427 45.683770 -9.454625
2332 1 1.029954 47.912246 -9.454625
2333 1 -0.270860 50.140723 -9.454625
2334 1 1.002483 52.369199 -9.454625
2335 1 -0.296546 54.597676 -9.454625
2336 1 0.978425 56.826153 -9.454625
2337 1 -0.319118 59.054629 -9.454625
2338 1 0.957212 61.283106 -9.454625
2339 1 -0.339083 63.511582 -9.454625
2340 1 0.938394 65.740059 -9.454625
2341 1 1.634829 -65.740059 -9.454625
2342 1 -2.234140 -63.511582 -9.454625
2343 1 1.616011 -61.283106 -9.454625
2344 1 -2.254105 -59.054629 -9.454625
2345 1 1.594798 -56.826153 -9.454625
2346 1 -2.276677 -54.597676 -9.454625
2347 1 1.570740 -52.369199 -9.454625
2348 1 -2.302363 -50.140723 -9.454625
2349 1 1.543269 -47.912246 -9.454625
2350 1 -2.331796 -45.683770 -9.454625
2351 1 1.511675 -43.455293 -9.454625
2352 1 -2.365777 -41.226817 -9.454625
2353 1 1.475052 -38.998340 -9.454625
2354 1 -2.405330 -36.769863 -9.454625
2355 1 1.432239 -34.541387 -9.454625
2356 1 -2.451778 -32.312910 -9.454625
2357 1 1.381729 -30.084434 -9.454625
2358 1 -2.506843 -27.855957 -9.454625
2359 1 1.321545 -25.627481 -9.454625
2360 1 -2.572792 -23.399004 -9.454625
2361 1 1.249089 -21.170527 -9.454625
2362 1 -2.652596 -18.942051 -9.454625
2363 1 1.160993 -16.713574 -9.454625
2364 1 -2.750008 -14.485098 -9.454625
2365 1 1.053218 -12.256621 -9.454625
2366 1 -2.869100 -10.028145 -9.454625
2367 1 0.922172 -7.799668 -9.454625
2368 1 -3.012094 -5.571191 -9.454625
2369 1 0.768281 -3.342715 -9.454625
2370 1 -3.174459 -1.114238 -9.454625
2371 1 3.174459 1.114238 -9.454625
2372 1 -0.768281 3.342715 -9.454625
2373 1 3.012094 5.571191 -9.454625
2374 1 -0.922172 7.799668 -9.454625
2375 1 2.869100 10.028145 -9.454625
2376 1 -1.053218 12.256621 -9.454625
2377 1 2.750008 14.485098 -9.454625
2378 1 -1.160993 16.713574 -9.454625
2379 1 2.652596 18.942051 -9.454625
2380 1 -1.249089 21.170527 -9.454625
2381 1 2.572792 23.399004 -9.454625
2382 1 -1.321545 25.627481 -9.454625
2383 1 2.506843 27.855957 -9.454625
2384 1 -1.381729 30.084434 -9.454625
2385 1 2.451778 32.312910 -9.454625
2386 1 -1.432239 34.541387 -9.454625
2387 1 2.405330 36.769863 -9.454625
2388 1 -1.475052 38.998340 -9.454625
2389 1 2.365777 41.226817 -9.454625
2390 1 -1.511675 43.455293 -9.454625
2391 1 2.331796 45.683770 -9.454625
2392 1 -1.543269 47.912246 -9.454625
2393 1 2.302363 50.140723 -9.454625
2394 1 -1.570740 52.369199 -9.454625
2395 1 2.276677 54.597676 -9.454625
2396 1 -1.594798 56.826153 -9.454625
2397 1 2.254105 59.054629 -9.454625
2398 1 -1.616011 61.283106 -9.454625
2399 1 2.234140 63.511582 -9.454625
2400 1 -1.634829 65.740059 -9.454625
2401 1 0.343268 -64.997233 -7.353598
2402 1 1.620392 -62.768757 -7.353598
2403 1 0.323710 -60.540280 -7.353598
2404 1 1.599613 -58.311804 -7.353598
2405 1 0.301599 -56.083327 -7.353598
2406 1 1.576047 -53.854850 -7.353598
2407 1 0.276440 -51.626374 -7.353598
2408 1 1.549141 -49.397897 -7.353598
2409 1 0.247613 -47.169421 -7.353598
2410 1 1.518198 -44.940944 -7.353598
2411 1 0.214334 -42.712468 -7.353598
2412 1 1.482337 -40.483991 -7.353598
2413 1 0.175613 -38.255514 -7.353598
2414 1 1.440439 -36.027038 -7.353598
2415 1 0.130181 -33.798561 -7.353598
2416 1 1.391072 -31.570085 -7.353598
2417 1 0.076423 -29.341608 -7.353598
2418 1 1.332412 -27.113132 -7.353598
2419 1 0.012288 -24.884655 -7.353598
2420 1 1.262162 -22.656178 -7.353598
2421 1 -0.064777 -20.427702 -7.353598
2422 1 1.177531 -18.199225 -7.353598
2423 1 -0.157756 -15.970749 -7.353598
2424 1 1.075444 -13.742272 -7.353598
2425 1 -0.269604 -11.513796 -7.353598
2426 1 0.953418 -9.285319 -7.353598
2427 1 -0.401795 -7.056842 -7.353598
2428 1 0.811727 -4.828366 -7.353598
2429 1 -0.551474 -2.599889 -7.353598
2430 1 0.656492 -0.371413 -7.353598
2431 1 1.864154 1.857064 -7.353598
2432 1 3.073311 4.085540 -7.353598
2433 1 1.712310 6.314017 -7.353598
2434 1 2.928744 8.542494 -7.353598
2435 1 1.576840 10.770970 -7.353598
2436 1 2.803301 12.999447 -7.353598
2437 1 1.461628 15.227923 -7.353598
2438 1 2.698024 17.456400 -7.353598
2439 1 1.365695 19.684876 -7.353598
2440 1 2.610697 21.913353 -7.353598
2441 1 1.286194 24.141830 -7.353598
2442 1 2.538257 26.370306 -7.353598
2443 1 1.220094 28.598783 -7.353598
2444 1 2.477838 30.827259 -7.353598
2445 1 1.164762 33.055736 -7.353598
2446 1 2.427061 35.284212 -7.353598
2447 1 1.118066 37.512689 -7.353598
2448 1 2.384027 39.741165 -7.353598
2449 1 1.078322 41.969642 -7.353598
2450 1 2.347245 44.198119 -7.353598
2451 1 1.044212 46.426595 -7.353598
2452 1 2.315549 48.655072 -7.353598
2453 1 1.014703 50.883548 -7.353598
2454 1 2.288023 53.112025 -7.353598
2455 1 0.988979 55.340501 -7.353598
2456 1 2.263942 57.568978 -7.353598
2457 1 0.966398 59.797455 -7.353598
2458 1 2.242732 62.025931 -7.353598
2459 1 0.946444 64.254408 -7.353598
2460 1 2.223932 66.482884 -7.353598
2461 1 -2.229955 -64.997233 -7.353598
2462 1 -0.952831 -62.768757 -7.353598
2463 1 -2.249514 -60.540280 -7.353598
2464 1 -0.973610 -58.311804 -7.353598
2465 1 -2.271624 -56.083327 -7.353598
2466 1 -0.997176 -53.854850 -7.353598
2467 1 -2.296783 -51.626374 -7.353598
2468 1 -1.024082 -49.397897 -7.353598
2469 1 -2.325611 -47.169421 -7.353598
2470 1 -1.055025 -44.940944 -7.353598
2471 1 -2.358889 -42.712468 -7.353598
2472 1 -1.090886 -40.483991 -7.353598
2473 1 -2.397610 -38.255514 -7.353598
2474 1 -1.132784 -36.027038 -7.353598
2475 1 -2.443042 -33.798561 -7.353598
2476 1 -1.182151 -31.570085 -7.353598
2477 1 -2.496800 -29.341608 -7.353598
2478 1 -1.240811 -27.113132 -7.353598
2479 1 -2.560935 -24.884655 -7.353598
2480 1 -1.311061 -22.656178 -7.353598
2481 1 -2.638000 -20.427702 -7.353598
2482 1 -1.395692 -18.199225 -7.353598
2483 1 -2.730979 -15.970749 -7.353598
2484 1 -1.497779 -13.742272 -7.353598
2485 1 -2.842828 -11.513796 -7.353598
2486 1 -1.619805 -9.285319 -7.353598
2487 1 -2.975018 -7.056842 -7.353598
2488 1 -1.761496 -4.828366 -7.353598
2489 1 -3.124697 -2.599889 -7.353598
2490 1 -1.916731 -0.371413 -7.353598
2491 1 -0.709069 1.857064 -7.353598
2492 1 0.500088 4.085540 -7.353598
2493 1 -0.860913 6.314017 -7.353598
2494 1 0.355521 8.542494 -7.353598
2495 1 -0.996383 10.770970 -7.353598
2496 1 0.230078 12.999447 -7.353598
2497 1 -1.111595 15.227923 -7.353598
2498 1 0.124801 17.456400 -7.353598
2499 1 -1.207528 19.684876 -7.353598
2500 1 0.037474 21.913353 -7.353598
2501 1 -1.287029 24.141830 -7.353598
2502 1 -0.034966 26.370306 -7.353598
2503 1 -1.353129 28.598783 -7.353598
2504 1 -0.095385 30.827259 -7.353598
2505 1 -1.408461 33.055736 -7.353598
2506 1 -0.146162 35.284212 -7.353598
2507 1 -1.455157 37.512689 -7.353598
2508 1 -0.189197 39.741165 -7.353598
2509 1 -1.494901 41.969642 -7.353598
2510 1 -0.225978 44.198119 -7.353598
2511 1 -1.529011 46.426595 -7.353598
2512 1 -0.257674 48.655072 -7.353598
2513 1 -1.558521 50.883548 -7.353598
2514 1 -0.285200 53.112025 -7.353598
2515 1 -1.584244 55.340501 -7.353598
2516 1 -0.309281 57.568978 -7.353598
2517 1 -1.606825 59.797455 -7.353598
2518 1 -0.330491 62.025931 -7.353598
2519 1 -1.626779 64.254408 -7.353598
2520 1 -0.349291 66.482884 -7.353598
2521 1 -2.225338 -66.482884 -5.252570
2522 1 -0.947973 -64.254408 -5.252570
2523 1 -2.244398 -62.025931 -5.252570
2524 1 -0.968217 -59.797455 -5.252570
2525 1 -2.265932 -57.568978 -5.252570
2526 1 -0.991161 -55.340501 -5.252570
2527 1 -2.290418 -53.112025 -5.252570
2528 1 -1.017338 -50.883548 -5.252570
2529 1 -2.318454 -48.655072 -5.252570
2530 1 -1.047420 -46.426595 -5.252570
2531 1 -2.350793 -44.198119 -5.252570
2532 1 -1.082253 -41.969642 -5.252570
2533 1 -2.388387 -39.741165 -5.252570
2534 1 -1.122907 -37.512689 -5.252570
2535 1 -2.432439 -35.284212 -5.252570
2536 1 -1.170737 -33.055736 -5.252570
2537 1 -2.484470 -30.827259 -5.252570
2538 1 -1.227440 -28.598783 -5.252570
2539 1 -2.546368 -26.370306 -5.252570
2540 1 -1.295103 -24.141830 -5.252570
2541 1 -2.620409 -21.913353 -5.252570
2542 1 -1.376165 -19.684876 -5.252570
2543 1 -2.709139 -17.456400 -5.252570
2544 1 -1.473175 -15.227923 -5.252570
2545 1 -2.814938 -12.999447 -5.252570
2546 1 -1.588079 -10.770970 -5.252570
2547 1 -2.938950 -8.542494 -5.252570
2548 1 -1.720749 -6.314017 -5.252570
2549 1 -3.079246 -4.085540 -5.252570
2550 1 -1.866989 -1.857064 -5.252570
2551 1 -0.655918 0.371413 -5.252570
2552 1 0.555393 2.599889 -5.252570
2553 1 -0.804881 4.828366 -5.252570
2554 1 0.410907 7.056842 -5.252570
2555 1 -0.942790 9.285319 -5.252570
2556 1 0.281039 11.513796 -5.252570
2557 1 -1.063790 13.742272 -5.252570
2558 1 0.169189 15.970749 -5.252570
2559 1 -1.166612 18.199225 -5.252570
2560 1 0.075003 20.427702 -5.252570
2561 1 -1.252716 22.656178 -5.252570
2562 1 -0.003647 24.884655 -5.252570
2563 1 -1.324561 27.113132 -5.252570
2564 1 -0.069322 29.341608 -5.252570
2565 1 -1.384666 31.570085 -5.252570
2566 1 -0.124412 33.798561 -5.252570
2567 1 -1.435246 36.027038 -5.252570
2568 1 -0.170938 38.255514 -5.252570
2569 1 -1.478126 40.483991 -5.252570
2570 1 -0.210536 42.712468 -5.252570
2571 1 -1.514767 44.940944 -5.252570
2572 1 -0.244510 47.169421 -5.252570
2573 1 -1.546329 49.397897 -5.252570
2574 1 -0.273888 51.626374 -5.252570
2575 1 -1.573726 53.854850 -5.252570
2576 1 -0.299484 56.083327 -5.252570
2577 1 -1.597682 58.311804 -5.252570
2578 1 -0.321943 60.540280 -5.252570
2579 1 -1.618773 62.768757 -5.252570
2580 1 -0.341781 64.997233 -5.252570
2581 1 0.347885 -66.482884 -5.252570
2582 1 1.625250 -64.254408 -5.252570
2583 1 0.328825 -62.025931 -5.252570
2584 1 1.605006 -59.797455 -5.252570
2585 1 0.307291 -57.568978 -5.252570
2586 1 1.582063 -55.340501 -5.252570
2587 1 0.282805 -53.112025 -5.252570
2588 1 1.555885 -50.883548 -5.252570
2589 1 0.254769 -48.655072 -5.252570
2590 1 1.525803 -46.426595 -5.252570
2591 1 0.222430 -44.198119 -5.252570
2592 1 1.490970 -41.969642 -5.252570
2593 1 0.184836 -39.741165 -5.252570
2594 1 1.450316 -37.512689 -5.252570
2595 1 0.140784 -35.284212 -5.252570
2596 1 1.402486 -33.055736 -5.252570
2597 1 0.088754 -30.827259 -5.252570
2598 1 1.345783 -28.598783 -5.252570
2599 1 0.026856 -26.370306 -5.252570
2600 1 1.278120 -24.141830 -5.252570
2601 1 -0.047186 -21.913353 -5.252570
2602 1 1.197058 -19.684876 -5.252570
2603 1 -0.135916 -17.456400 -5.252570
2604 1 1.100048 -15.227923 -5.252570
2605 1 -0.241715 -12.999447 -5.252570
2606 1 0.985144 -10.770970 -5.252570
2607 1 -0.365727 -8.542494 -5.252570
2608 1 0.852474 -6.314017 -5.252570
2609 1 -0.506023 -4.085540 -5.252570
2610 1 0.706234 -1.857064 -5.252570
2611 1 1.917305 0.371413 -5.252570
2612 1 3.128616 2.599889 -5.252570
2613 1 1.768342 4.828366 -5.252570
2614 1 2.984130 7.056842 -5.252570
2615 1 1.630433 9.285319 -5.252570
2616 1 2.854263 11.513796 -5.252570
2617 1 1.509433 13.742272 -5.252570
2618 1 2.742412 15.970749 -5.252570
2619 1 1.406611 18.199225 -5.252570
2620 1 2.648226 20.427702 -5.252570
2621 1 1.320507 22.656178 -5.252570
2622 1 2.569576 24.884655 -5.252570
2623 1 1.248662 27.113132 -5.252570
2624 1 2.503901 29.341608 -5.252570
2625 1 1.188557 31.570085 -5.252570
2626 1 2.448811 33.798561 -5.252570
2627 1 1.137977 36.027038 -5.252570
2628 1 2.402285 38.255514 -5.252570
2629 1 1.095097 40.483991 -5.252570
2630 1 2.362687 42.712468 -5.252570
2631 1 1.058456 44.940944 -5.252570
2632 1 2.328714 47.169421 -5.252570
2633 1 1.026894 49.397897 -5.252570
2634 1 2.299336 51.626374 -5.252570
2635 1 0.999497 53.854850 -5.252570
2636 1 2.273740 56.083327 -5.252570
2637 1 0.975541 58.311804 -5.252570
2638 1 2.251280 60.540280 -5.252570
2639 1 0.954450 62.768757 -5.252570
2640 1 2.231442 64.997233 -5.252570
2641 1 -0.942718 -65.740059 -3.151542
2642 1 0.334376 -63.511582 -3.151542
2643 1 -0.962344 -61.283106 -3.151542
2644 1 0.313512 -59.054629 -3.151542
2645 1 -0.984560 -56.826153 -3.151542
2646 1 0.289817 -54.597676 -3.151542
2647 1 -1.009876 -52.369199 -3.151542
2648 1 0.262722 -50.140723 -3.151542
2649 1 -1.038929 -47.912246 -3.151542
2650 1 0.231511 -45.683770 -3.151542
2651 1 -1.072522 -43.455293 -3.151542
2652 1 0.195283 -41.226817 -3.151542
2653 1 -1.111668 -38.998340 -3.151542
2654 1 0.152902 -36.769863 -3.151542
2655 1 -1.157641 -34.541387 -3.151542
2656 1 0.102939 -32.312910 -3.151542
2657 1 -1.212033 -30.084434 -3.151542
2658 1 0.043635 -27.855957 -3.151542
2659 1 -1.276777 -25.627481 -3.151542
2660 1 -0.027109 -23.399004 -3.151542
2661 1 -1.354104 -21.170527 -3.151542
2662 1 -0.111604 -18.942051 -3.151542
2663 1 -1.446315 -16.713574 -3.151542
2664 1 -0.211993 -14.485098 -3.151542
2665 1 -1.555184 -12.256621 -3.151542
2666 1 -0.329399 -10.028145 -3.151542
2667 1 -1.680838 -7.799668 -3.151542
2668 1 -0.462569 -5.571191 -3.151542
2669 1 -1.820288 -3.342715 -3.151542
2670 1 -0.606558 -1.114238 -3.151542
2671 1 0.606558 1.114238 -3.151542
2672 1 1.820288 3.342715 -3.151542
2673 1 0.462569 5.571191 -3.151542
2674 1 1.680838 7.799668 -3.151542
2675 1 0.329399 10.028145 -3.151542
2676 1 1.555184 12.256621 -3.151542
2677 1 0.211993 14.485098 -3.151542
2678 1 1.446315 16.713574 -3.151542
2679 1 0.111604 18.942051 -3.151542
2680 1 1.354104 21.170527 -3.151542
2681 1 0.027109 23.399004 -3.151542
2682 1 1.276777 25.627481 -3.151542
2683 1 -0.043635 27.855957 -3.151542
2684 1 1.212033 30.084434 -3.151542
2685 1 -0.102939 32.312910 -3.151542
2686 1 1.157641 34.541387 -3.151542
2687 1 -0.152902 36.769863 -3.151542
2688 1 1.111668 38.998340 -3.151542
2689 1 -0.195283 41.226817 -3.151542
2690 1 1.072522 43.455293 -3.151542
2691 1 -0.231511 45.683770 -3.151542
2692 1 1.038929 47.912246 -3.151542
2693 1 -0.262722 50.140723 -3.151542
2694 1 1.009876 52.369199 -3.151542
2695 1 -0.289817 54.597676 -3.151542
2696 1 0.984560 56.826153 -3.151542
2697 1 -0.313512 59.054629 -3.151542
2698 1 0.962344 61.283106 -3.151542
2699 1 -0.334376 63.511582 -3.151542
2700 1 0.942718 65.740059 -3.151542
2701 1 1.630505 -65.740059 -3.151542
2702 1 -2.238847 -63.511582 -3.151542
2703 1 1.610879 -61.283106 -3.151542
2704 1 -2.259711 -59.054629 -3.151542
2705 1 1.588663 -56.826153 -3.151542
2706 1 -2.283406 -54.597676 -3.151542
2707 1 1.563347 -52.369199 -3.151542
2708 1 -2.310501 -50.140723 -3.151542
2709 1 1.534294 -47.912246 -3.151542
2710 1 -2.341712 -45.683770 -3.151542
2711 1 1.500701 -43.455293 -3.151542
2712 1 -2.377940 -41.226817 -3.151542
2713 1 1.461555 -38.998340 -3.151542
2714 1 -2.420321 -36.769863 -3.151542
2715 1 1.415582 -34.541387 -3.151542
2716 1 -2.470284 -32.312910 -3.151542
2717 1 1.361190 -30.084434 -3.151542
2718 1 -2.529589 -27.855957 -3.151542
2719 1 1.296446 -25.627481 -3.151542
2720 1 -2.600332 -23.399004 -3.151542
2721 1 1.219119 -21.170527 -3.151542
2722 1 -2.684827 -18.942051 -3.151542
2723 1 1.126908 -16.713574 -3.151542
2724 1 -2.785216 -14.485098 -3.151542
2725 1 1.018039 -12.256621 -3.151542
2726 1 -2.902622 -10.028145 -3.151542
2727 1 0.892385 -7.799668 -3.151542
2728 1 -3.035792 -5.571191 -3.151542
2729 1 0.752935 -3.342715 -3.151542
2730 1 -3.179781 -1.114238 -3.151542
2731 1 3.179781 1.114238 -3.151542
2732 1 -0.752935 3.342715 -3.151542
2733 1 3.035792 5.571191 -3.151542
2734 1 -0.892385 7.799668 -3.151542
2735 1 2.902622 10.028145 -3.151542
2736 1 -1.018039 12.256621 -3.151542
2737 1 2.785216 14.485098 -3.151542
2738 1 -1.126908 16.713574 -3.151542
2739 1 2.684827 18.942051 -3.151542
2740 1 -1.219119 21.170527 -3.151542
2741 1 2.600332 23.399004 -3.151542
2742 1 -1.296446 25.627481 -3.151542
2743 1 2.529589 27.855957 -3.151542
2744 1 -1.361190 30.084434 -3.151542
2745 1 2.470284 32.312910 -3.151542
2746 1 -1.415582 34.541387 -3.151542
2747 1 2.420321 36.769863 -3.151542
2748 1 -1.461555 38.998340 -3.151542
2749 1 2.377940 41.226817 -3.151542
2750 1 -1.500701 43.455293 -3.151542
2751 1 2.341712 45.683770 -3.151542
2752 1 -1.534294 47.912246 -3.151542
2753 1 2.310501 50.140723 -3.151542
2754 1 -1.563347 52.369199 -3.151542
2755 1 2.283406 54.597676 -3.151542
2756 1 -1.588663 56.826153 -3.151542
2757 1 2.259711 59.054629 -3.151542
2758 1 -1.610879 61.283106 -3.151542
2759 1 2.238847 63.511582 -3.151542
2760 1 -1.630505 65.740059 -3.151542
2761 1 0.340283 -64.997233 -1.050514
2762 1 1.617141 -62.768757 -1.050514
2763 1 0.320161 -60.540280 -1.050514
2764 1 1.595734 -58.311804 -1.050514
2765 1 0.297349 -56.083327 -1.050514
2766 1 1.571382 -53.854850 -1.050514
2767 1 0.271310 -51.626374 -1.050514
2768 1 1.543489 -49.397897 -1.050514
2769 1 0.241374 -47.169421 -1.050514
2770 1 1.511301 -44.940944 -1.050514
2771 1 0.206697 -42.712468 -1.050514
2772 1 1.473870 -40.483991 -1.050514
2773 1 0.166215 -38.255514 -1.050514
2774 1 1.430003 -36.027038 -1.050514
2775 1 0.118592 -33.798561 -1.050514
2776 1 1.378211 -31.570085 -1.050514
2777 1 0.062178 -29.341608 -1.050514
2778 1 1.316682 -27.113132 -1.050514
2779 1 -0.004997 -24.884655 -1.050514
2780 1 1.243306 -22.656178 -1.050514
2781 1 -0.085135 -20.427702 -1.050514
2782 1 1.155867 -18.199225 -1.050514
2783 1 -0.180350 -15.970749 -1.050514
2784 1 1.052525 -13.742272 -1.050514
2785 1 -0.291975 -11.513796 -1.050514
2786 1 0.932742 -9.285319 -1.050514
2787 1 -0.419425 -7.056842 -1.050514
2788 1 0.798544 -4.828366 -1.050514
2789 1 -0.558996 -2.599889 -1.050514
2790 1 0.655392 -0.371413 -1.050514
2791 1 1.869591 1.857064 -1.050514
2792 1 3.084725 4.085540 -1.050514
2793 1 1.728610 6.314017 -1.050514
2794 1 2.948561 8.542494 -1.050514
2795 1 1.598785 10.770970 -1.050514
2796 1 2.826148 12.999447 -1.050514
2797 1 1.484411 15.227923 -1.050514
2798 1 2.720050 17.456400 -1.050514
2799 1 1.386518 19.684876 -1.050514
2800 1 2.630068 21.913353 -1.050514
2801 1 1.304004 24.141830 -1.050514
2802 1 2.554500 26.370306 -1.050514
2803 1 1.234824 28.598783 -1.050514
2804 1 2.491148 30.827259 -1.050514
2805 1 1.176762 33.055736 -1.050514
2806 1 2.437869 35.284212 -1.050514
2807 1 1.127798 37.512689 -1.050514
2808 1 2.392793 39.741165 -1.050514
2809 1 1.086226 41.969642 -1.050514
2810 1 2.354379 44.198119 -1.050514
2811 1 1.050662 46.426595 -1.050514
2812 1 2.321389 48.655072 -1.050514
2813 1 1.020000 50.883548 -1.050514
2814 1 2.292837 53.112025 -1.050514
2815 1 0.993362 55.340501 -1.050514
2816 1 2.267941 57.568978 -1.050514
2817 1 0.970052 59.797455 -1.050514
2818 1 2.246079 62.025931 -1.050514
2819 1 0.949515 64.254408 -1.050514
2820 1 2.226754 66.482884 -1.050514
2821 1 -2.232940 -64.997233 -1.050514
2822 1 -0.956082 -62.768757 -1.050514
2823 1 -2.253062 -60.540280 -1.050514
2824 1 -0.977490 -58.311804 -1.050514
2825 1 -2.275874 -56.083327 -1.050514
2826 1 -1.001841 -53.854850 -1.050514
2827 1 -2.301913 -51.626374 -1.050514
2828 1 -1.029734 -49.397897 -1.050514
2829 1 -2.331849 -47.169421 -1.050514
2830 1 -1.061922 -44.940944 -1.050514
2831 1 -2.366526 -42.712468 -1.050514
2832 1 -1.099353 -40.483991 -1.050514
2833 1 -2.407008 -38.255514 -1.050514
2834 1 -1.143220 -36.027038 -1.050514
2835 1 -2.454632 -33.798561 -1.050514
2836 1 -1.195012 -31.570085 -1.050514
2837 1 -2.511045 -29.341608 -1.050514
2838 1 -1.256541 -27.113132 -1.050514
2839 1 -2.578220 -24.884655 -1.050514
2840 1 -1.329917 -22.656178 -1.050514
2841 1 -2.658358 -20.427702 -1.050514
2842 1 -1.417357 -18.199225 -1.050514
2843 1 -2.753573 -15.970749 -1.050514
2844 1 -1.520698 -13.742272 -1.050514
2845 1 -2.865198 -11.513796 -1.050514
2846 1 -1.640481 -9.285319 -1.050514
2847 1 -2.992648 -7.056842 -1.050514
2848 1 -1.774679 -4.828366 -1.050514
2849 1 -3.132219 -2.599889 -1.050514
2850 1 -1.917831 -0.371413 -1.050514
2851 1 -0.703632 1.857064 -1.050514
2852 1 0.511502 4.085540 -1.050514
2853 1 -0.844614 6.314017 -1.050514
2854 1 0.375338 8.542494 -1.050514
2855 1 -0.974438 10.770970 -1.050514
2856 1 0.252925 12.999447 -1.050514
2857 1 -1.088812 15.227923 -1.050514
2858 1 0.146827 17.456400 -1.050514
2859 1 -1.186705 19.684876 -1.050514
2860 1 0.056844 21.913353 -1.050514
2861 1 -1.269219 24.141830 -1.050514
2862 1 -0.018724 26.370306 -1.050514
2863 1 -1.338399 28.598783 -1.050514
2864 1 -0.082075 30.827259 -1.050514
2865 1 -1.396461 33.055736 -1.050514
2866 1 -0.135354 35.284212 -1.050514
2867 1 -1.445425 37.512689 -1.050514
2868 1 -0.180430 39.741165 -1.050514
2869 1 -1.486997 41.969642 -1.050514
2870 1 -0.218844 44.198119 -1.050514
2871 1 -1.522561 46.426595 -1.050514
2872 1 -0.251834 48.655072 -1.050514
2873 1 -1.553223 50.883548 -1.050514
2874 1 -0.280386 53.112025 -1.050514
2875 1 -1.579861 55.340501 -1.050514
2876 1 -0.305282 57.568978 -1.050514
2877 1 -1.603171 59.797455 -1.050514
2878 1 -0.327144 62.025931 -1.050514
2879 1 -1.623708 64.254408 -1.050514
2880 1 -0.346469 66.482884 -1.050514
2881 1 -2.226754 -66.482884 1.050514
2882 1 -0.949515 -64.254408 1.050514
2883 1 -2.246079 -62.025931 1.050514
2884 1 -0.970052 -59.797455 1.050514
2885 1 -2.267941 -57.568978 1.050514
2886 1 -0.993362 -55.340501 1.050514
2887 1 -2.292837 -53.112025 1.050514
2888 1 -1.020000 -50.883548 1.050514
2889 1 -2.321389 -48.655072 1.050514
2890 1 -1.050662 -46.426595 1.050514
2891 1 -2.354379 -44.198119 1.050514
2892 1 -1.086226 -41.969642 1.050514
2893 1 -2.392793 -39.741165 1.050514
2894 1 -1.127798 -37.512689 1.050514
2895 1 -2.437869 -35.284212 1.050514
2896 1 -1.176762 -33.055736 1.050514
2897 1 -2.491148 -30.827259 1.050514
2898 1 -1.234824 -28.598783 1.050514
2899 1 -2.554500 -26.370306 1.050514
2900 1 -1.304004 -24.141830 1.050514
2901 1 -2.630068 -21.913353 1.050514
2902 1 -1.386518 -19.684876 1.050514
2903 1 -2.720050 -17.456400 1.050514
2904 1 -1.484411 -15.227923 1.050514
2905 1 -2.826148 -12.999447 1.050514
2906 1 -1.598785 -10.770970 1.050514
2907 1 -2.948561 -8.542494 1.050514
2908 1 -1.728610 -6.314017 1.050514
2909 1 -3.084725 -4.085540 1.050514
2910 1 -1.869591 -1.857064 1.050514
2911 1 -0.655392 0.371413 1.050514
2912 1 0.558996 2.599889 1.050514
2913 1 -0.798544 4.828366 1.050514
2914 1 0.419425 7.056842 1.050514
2915 1 -0.932742 9.285319 1.050514
2916 1 0.291975 11.513796 1.050514
2917 1 -1.052525 13.742272 1.050514
2918 1 0.180350 15.970749 1.050514
2919 1 -1.155867 18.199225 1.050514
2920 1 0.085135 20.427702 1.050514
2921 1 -1.243306 22.656178 1.050514
2922 1 0.004997 24.884655 1.050514
2923 1 -1.316682 27.113132 1.050514
2924 1 -0.062178 29.341608 1.050514
2925 1 -1.378211 31.570085 1.050514
2926 1 -0.118592 33.798561 1.050514
2927 1 -1.430003 36.027038 1.050514
2928 1 -0.166215 38.255514 1.050514
2929 1 -1.473870 40.483991 1.050514
2930 1 -0.206697 42.712468 1.050514
2931 1 -1.511301 44.940944 1.050514
2932 1 -0.241374 47.169421 1.050514
2933 1 -1.543489 49.397897 1.050514
2934 1 -0.271310 51.626374 1.050514
2935 1 -1.571382 53.854850 1.050514
2936 1 -0.297349 56.083327 1.050514
2937 1 -1.595734 58.311804 1.050514
2938 1 -0.320161 60.540280 1.050514
2939 1 -1.617141 62.768757 1.050514
2940 1 -0.340283 64.997233 1.050514
2941 1 0.346469 -66.482884 1.050514
2942 1 1.623708 -64.254408 1.050514
2943 1 0.327144 -62.025931 1.050514
2944 1 1.603171 -59.797455 1.050514
2945 1 0.305282 -57.568978 1.050514
2946 1 1.579861 -55.340501 1.050514
2947 1 0.280386 -53.112025 1.050514
2948 1 1.553223 -50.883548 1.050514
2949 1 0.251834 -48.655072 1.050514
2950 1 1.522561 -46.426595 1.050514
2951 1 0.218844 -44.198119 1.050514
2952 1 1.486997 -41.969642 1.050514
2953 1 0.180430 -39.741165 1.050514
2954 1 1.445425 -37.512689 1.050514
2955 1 0.135354 -35.284212 1.050514
2956 1 1.396461 -33.055736 1.050514
2957 1 0.082075 -30.827259 1.050514
2958 1 1.338399 -28.598783 1.050514
2959 1 0.018724 -26.370306 1.050514
2960 1 1.269219 -24.141830 1.050514
2961 1 -0.056844 -21.913353 1.050514
2962 1 1.186705 -19.684876 1.050514
2963 1 -0.146827 -17.456400 1.050514
2964 1 1.088812 -15.227923 1.050514
2965 1 -0.252925 -12.999447 1.050514
2966 1 0.974438 -10.770970 1.050514
2967 1 -0.375338 -8.542494 1.050514
2968 1 0.844614 -6.314017 1.050514
2969 1 -0.511502 -4.085540 1.050514
2970 1 0.703632 -1.857064 1.050514
2971 1 1.917831 0.371413 1.050514
2972 1 3.132219 2.599889 1.050514
2973 1 1.774679 4.828366 1.050514
2974 1 2.992648 7.056842 1.050514
2975 1 1.640481 9.285319 1.050514
2976 1 2.865198 11.513796 1.050514
2977 1 1.520698 13.742272 1.050514
2978 1 2.753573 15.970749 1.050514
2979 1 1.417357 18.199225 1.050514
2980 1 2.658358 20.427702 1.050514
2981 1 1.329917 22.656178 1.050514
2982 1 2.578220 24.884655 1.050514
2983 1 1.256541 27.113132 1.050514
2984 1 2.511045 29.341608 1.050514
2985 1 1.195012 31.570085 1.050514
2986 1 2.454632 33.798561 1.050514
2987 1 1.143220 36.027038 1.050514
2988 1 2.407008 38.255514 1.050514
2989 1 1.099353 40.483991 1.050514
2990 1 2.366526 42.712468 1.050514
2991 1 1.061922 44.940944 1.050514
2992 1 2.331849 47.169421 1.050514
2993 1 1.029734 49.397897 1.050514
2994 1 2.301913 51.626374 1.050514
2995 1 1.001841 53.854850 1.050514
2996 1 2.275874 56.083327 1.050514
2997 1 0.977490 58.311804 1.050514
2998 1 2.253062 60.540280 1.050514
2999 1 0.956082 62.768757 1.050514
3000 1 2.232940 64.997233 1.050514
3001 1 -0.942718 -65.740059 3.151542
3002 1 0.334376 -63.511582 3.151542
3003 1 -0.962344 -61.283106 3.151542
3004 1 0.313512 -59.054629 3.151542
3005 1 -0.984560 -56.826153 3.151542
3006 1 0.289817 -54.597676 3.151542
3007 1 -1.009876 -52.369199 3.151542
3008 1 0.262722 -50.140723 3.151542
3009 1 -1.038929 -47.912246 3.151542
3010 1 0.231511 -45.683770 3.151542
3011 1 -1.072522 -43.455293 3.151542
3012 1 0.195283 -41.226817 3.151542
3013 1 -1.111668 -38.998340 3.151542
3014 1 0.152902 -36.769863 3.151542
3015 1 -1.157641 -34.541387 3.151542
3016 1 0.102939 -32.312910 3.151542
3017 1 -1.212033 -30.084434 3.151542
3018 1 0.043635 -27.855957 3.151542
3019 1 -1.276777 -25.627481 3.151542
3020 1 -0.027109 -23.399004 3.151542
3021 1 -1.354104 -21.170527 3.151542
3022 1 -0.111604 -18.942051 3.151542
3023 1 -1.446315 -16.713574 3.151542
3024 1 -0.211993 -14.485098 3.151542
3025 1 -1.555184 -12.256621 3.151542
3026 1 -0.329399 -10.028145 3.151542
3027 1 -1.680838 -7.799668 3.151542
3028 1 -0.462569 -5.571191 3.151542
3029 1 -1.820288 -3.342715 3.151542
3030 1 -0.606558 -1.114238 3.151542
3031 1 0.606558 1.114238 3.151542
3032 1 1.820288 3.342715 3.151542
3033 1 0.462569 5.571191 3.151542
3034 1 1.680838 7.799668 3.151542
3035 1 0.329399 10.028145 3.151542
3036 1 1.555184 12.256621 3.151542
3037 1 0.211993 14.485098 3.151542
3038 1 1.446315 16.713574 3.151542
3039 1 0.111604 18.942051 3.151542
3040 1 1.354104 21.170527 3.151542
3041 1 0.027109 23.399004 3.151542
3042 1 1.276777 25.627481 3.151542
3043 1 -0.043635 27.855957 3.151542
3044 1 1.212033 30.084434 3.151542
3045 1 -0.102939 32.312910 3.151542
3046 1 1.157641 34.541387 3.151542
3047 1 -0.152902 36.769863 3.151542
3048 1 1.111668 38.998340 3.151542
3049 1 -0.195283 41.226817 3.151542
3050 1 1.072522 43.455293 3.151542
3051 1 -0.231511 45.683770 3.151542
3052 1 1.038929 47.912246 3.151542
3053 1 -0.262722 50.140723 3.151542
3054 1 1.009876 52.369199 3.151542
3055 1 -0.289817 54.597676 3.151542
3056 1 0.984560 56.826153 3.151542
3057 1 -0.313512 59.054629 3.151542
3058 1 0.962344 61.283106 3.151542
3059 1 -0.334376 63.511582 3.151542
3060 1 0.942718 65.740059 3.151542
3061 1 1.630505 -65.740059 3.151542
3062 1 -2.238847 -63.511582 3.151542
3063 1 1.610879 -61.283106 3.151542
3064 1 -2.259711 -59.054629 3.151542
3065 1 1.588663 -56.826153 3.151542
3066 1 -2.283406 -54.597676 3.151542
3067 1 1.563347 -52.369199 3.151542
3068 1 -2.310501 -50.140723 3.151542
3069 1 1.534294 -47.912246 3.151542
3070 1 -2.341712 -45.683770 3.151542
3071 1 1.500701 -43.455293 3.151542
3072 1 -2.377940 -41.226817 3.151542
3073 1 1.461555 -38.998340 3.151542
3074 1 -2.420321 -36.769863 3.151542
3075 1 1.415582 -34.541387 3.151542
3076 1 -2.470284 -32.312910 3.151542
3077 1 1.361190 -30.084434 3.151542
3078 1 -2.529589 -27.855957 3.151542
3079 1 1.296446 -25.627481 3.151542
3080 1 -2.600332 -23.399004 3.151542
3081 1 1.219119 -21.170527 3.151542
3082 1 -2.684827 -18.942051 3.151542
3083 1 1.126908 -16.713574 3.151542
3084 1 -2.785216 -14.485098 3.151542
3085 1 1.018039 -12.256621 3.151542
3086 1 -2.902622 -10.028145 3.151542
3087 1 0.892385 -7.799668 3.151542
3088 1 -3.035792 -5.571191 3.151542
3089 1 0.752935 -3.342715 3.151542
3090 1 -3.179781 -1.114238 3.151542
3091 1 3.179781 1.114238 3.151542
3092 1 -0.752935 3.342715 3.151542
3093 1 3.035792 5.571191 3.151542
3094 1 -0.892385 7.799668 3.151542
3095 1 2.902622 10.028145 3.151542
3096 1 -1.018039 12.256621 3.151542
3097 1 2.785216 14.485098 3.151542
3098 1 -1.126908 16.713574 3.151542
3099 1 2.684827 18.942051 3.151542
3100 1 -1.219119 21.170527 3.151542
3101 1 2.600332 23.399004 3.151542
3102 1 -1.296446 25.627481 3.151542
3103 1 2.529589 27.855957 3.151542
3104 1 -1.361190 30.084434 3.151542
3105 1 2.470284 32.312910 3.151542
3106 1 -1.415582 34.541387 3.151542
3107 1 2.420321 36.769863 3.151542
3108 1 -1.461555 38.998340 3.151542
3109 1 2.377940 41.226817 3.151542
3110 1 -1.500701 43.455293 3.151542
3111 1 2.341712 45.683770 3.151542
3112 1 -1.534294 47.912246 3.151542
3113 1 2.310501 50.140723 3.151542
3114 1 -1.563347 52.369199 3.151542
3115 1 2.283406 54.597676 3.151542
3116 1 -1.588663 56.826153 3.151542
3117 1 2.259711 59.054629 3.151542
3118 1 -1.610879 61.283106 3.151542
3119 1 2.238847 63.511582 3.151542
3120 1 -1.630505 65.740059 3.151542
3121 1 0.341781 -64.997233 5.252570
3122 1 1.618773 -62.768757 5.252570
3123 1 0.321943 -60.540280 5.252570
3124 1 1.597682 -58.311804 5.252570
3125 1 0.299484 -56.083327 5.252570
3126 1 1.573726 -53.854850 5.252570
3127 1 0.273888 -51.626374 5.252570
3128 1 1.546329 -49.397897 5.252570
3129 1 0.244510 -47.169421 5.252570
3130 1 1.514767 -44.940944 5.252570
3131 1 0.210536 -42.712468 5.252570
3132 1 1.478126 -40.483991 5.252570
3133 1 0.170938 -38.255514 5.252570
3134 1 1.435246 -36.027038 5.252570
3135 1 0.124412 -33.798561 5.252570
3136 1 1.384666 -31.570085 5.252570
3137 1 0.069322 -29.341608 5.252570
3138 1 1.324561 -27.113132 5.252570
3139 1 0.003647 -24.884655 5.252570
3140 1 1.252716 -22.656178 5.252570
3141 1 -0.075003 -20.427702 5.252570
3142 1 1.166612 -18.199225 5.252570
3143 1 -0.169189 -15.970749 5.252570
3144 1 1.063790 -13.742272 5.252570
3145 1 -0.281039 -11.513796 5.252570
3146 1 0.942790 -9.285319 5.252570
3147 1 -0.410907 -7.056842 5.252570
3148 1 0.804881 -4.828366 5.252570
3149 1 -0.555393 -2.599889 5.252570
3150 1 0.655918 -0.371413 5.252570
3151 1 1.866989 1.857064 5.252570
3152 1 3.079246 4.085540 5.252570
3153 1 1.720749 6.314017 5.252570
3154 1 2.938950 8.542494 5.252570
3155 1 1.588079 10.770970 5.252570
3156 1 2.814938 12.999447 5.252570
3157 1 1.473175 15.227923 5.252570
3158 1 2.709139 17.456400 5.252570
3159 1 1.376165 19.684876 5.252570
3160 1 2.620409 21.913353 5.252570
3161 1 1.295103 24.141830 5.252570
3162 1 2.546368 26.370306 5.252570
3163 1 1.227440 28.598783 5.252570
3164 1 2.484470 30.827259 5.252570
3165 1 1.170737 33.055736 5.252570
3166 1 2.432439 35.284212 5.252570
3167 1 1.122907 37.512689 5.252570
3168 1 2.388387 39.741165 5.252570
3169 1 1.082253 41.969642 5.252570
3170 1 2.350793 44.198119 5.252570
3171 1 1.047420 46.426595 5.252570
3172 1 2.318454 48.655072 5.252570
3173 1 1.017338 50.883548 5.252570
3174 1 2.290418 53.112025 5.252570
3175 1 0.991161 55.340501 5.252570
3176 1 2.265932 57.568978 5.252570
3177 1 0.968217 59.797455 5.252570
3178 1 2.244398 62.025931 5.252570
3179 1 0.947973 64.254408 5.252570
3180 1 2.225338 66.482884 5.252570
3181 1 -2.231442 -64.997233 5.252570
3182 1 -0.954450 -62.768757 5.252570
3183 1 -2.251280 -60.540280 5.252570
3184 1 -0.975541 -58.311804 5.252570
3185 1 -2.273740 -56.083327 5.252570
3186 1 -0.999497 -53.854850 5.252570
3187 1 -2.299336 -51.626374 5.252570
3188 1 -1.026894 -49.397897 5.252570
3189 1 -2.328714 -47.169421 5.252570
3190 1 -1.058456 -44.940944 5.252570
3191 1 -2.362687 -42.712468 5.252570
3192 1 -1.095097 -40.483991 5.252570
3193 1 -2.402285 -38.255514 5.252570
3194 1 -1.137977 -36.027038 5.252570
3195 1 -2.448811 -33.798561 5.252570
3196 1 -1.188557 -31.570085 5.252570
3197 1 -2.503901 -29.341608 5.252570
3198 1 -1.248662 -27.113132 5.252570
3199 1 -2.569576 -24.884655 5.252570
3200 1 -1.320507 -22.656178 5.252570
3201 1 -2.648226 -20.427702 5.252570
3202 1 -1.406611 -18.199225 5.252570
3203 1 -2.742412 -15.970749 5.252570
3204 1 -1.509433 -13.742272 5.252570
3205 1 -2.854263 -11.513796 5.252570
3206 1 -1.630433 -9.285319 5.252570
3207 1 -2.984130 -7.056842 5.252570
3208 1 -1.768342 -4.828366 5.252570
3209 1 -3.128616 -2.599889 5.252570
3210 1 -1.917305 -0.371413 5.252570
3211 1 -0.706234 1.857064 5.252570
3212 1 0.506023 4.085540 5.252570
3213 1 -0.852474 6.314017 5.252570
3214 1 0.365727 8.542494 5.252570
3215 1 -0.985144 10.770970 5.252570
3216 1 0.241715 12.999447 5.252570
3217 1 -1.100048 15.227923 5.252570
3218 1 0.135916 17.456400 5.252570
3219 1 -1.197058 19.684876 5.252570
3220 1 0.047186 21.913353 5.252570
3221 1 -1.278120 24.141830 5.252570
3222 1 -0.026856 26.370306 5.252570
3223 1 -1.345783 28.598783 5.252570
3224 1 -0.088754 30.827259 5.252570
3225 1 -1.402486 33.055736 5.252570
3226 1 -0.140784 35.284212 5.252570
3227 1 -1.450316 37.512689 5.252570
3228 1 -0.184836 39.741165 5.252570
3229 1 -1.490970 41.969642 5.252570
3230 1 -0.222430 44.198119 5.252570
3231 1 -1.525803 46.426595 5.252570
3232 1 -0.254769 48.655072 5.252570
3233 1 -1.555885 50.883548 5.252570
3234 1 -0.282805 53.112025 5.252570
3235 1 -1.582063 55.340501 5.252570
3236 1 -0.307291 57.568978 5.252570
3237 1 -1.605006 59.797455 5.252570
3238 1 -0.328825 62.025931 5.252570
3239 1 -1.625250 64.254408 5.252570
3240 1 -0.347885 66.482884 5.252570
3241 1 -2.223932 -66.482884 7.353598
3242 1 -0.946444 -64.254408 7.353598
3243 1 -2.242732 -62.025931 7.353598
3244 1 -0.966398 -59.797455 7.353598
3245 1 -2.263942 -57.568978 7.353598
3246 1 -0.988979 -55.340501 7.353598
3247 1 -2.288023 -53.112025 7.353598
3248 1 -1.014703 -50.883548 7.353598
3249 1 -2.315549 -48.655072 7.353598
3250 1 -1.044212 -46.426595 7.353598
3251 1 -2.347245 -44.198119 7.353598
3252 1 -1.078322 -41.969642 7.353598
3253 1 -2.384027 -39.741165 7.353598
3254 1 -1.118066 -37.512689 7.353598
3255 1 -2.427061 -35.284212 7.353598
3256 1 -1.164762 -33.055736 7.353598
3257 1 -2.477838 -30.827259 7.353598
3258 1 -1.220094 -28.598783 7.353598
3259 1 -2.538257 -26.370306 7.353598
3260 1 -1.286194 -24.141830 7.353598
3261 1 -2.610697 -21.913353 7.353598
3262 1 -1.365695 -19.684876 7.353598
3263 1 -2.698024 -17.456400 7.353598
3264 1 -1.461628 -15.227923 7.353598
3265 1 -2.803301 -12.999447 7.353598
3266 1 -1.576840 -10.770970 7.353598
3267 1 -2.928744 -8.542494 7.353598
3268 1 -1.712310 -6.314017 7.353598
3269 1 -3.073311 -4.085540 7.353598
3270 1 -1.864154 -1.857064 7.353598
3271 1 -0.656492 0.371413 7.353598
3272 1 0.551474 2.599889 7.353598
3273 1 -0.811727 4.828366 7.353598
3274 1 0.401795 7.056842 7.353598
3275 1 -0.953418 9.285319 7.353598
3276 1 0.269604 11.513796 7.353598
3277 1 -1.075444 13.742272 7.353598
3278 1 0.157756 15.970749 7.353598
3279 1 -1.177531 18.199225 7.353598
3280 1 0.064777 20.427702 7.353598
3281 1 -1.262162 22.656178 7.353598
3282 1 -0.012288 24.884655 7.353598
3283 1 -1.332412 27.113132 7.353598
3284 1 -0.076423 29.341608 7.353598
3285 1 -1.391072 31.570085 7.353598
3286 1 -0.130181 33.798561 7.353598
3287 1 -1.440439 36.027038 7.353598
3288 1 -0.175613 38.255514 7.353598
3289 1 -1.482337 40.483991 7.353598
3290 1 -0.214334 42.712468 7.353598
3291 1 -1.518198 44.940944 7.353598
3292 1 -0.247613 47.169421 7.353598
3293 1 -1.549141 49.397897 7.353598
3294 1 -0.276440 51.626374 7.353598
3295 1 -1.576047 53.854850 7.353598
3296 1 -0.301599 56.083327 7.353598
3297 1 -1.599613 58.311804 7.353598
3298 1 -0.323710 60.540280 7.353598
3299 1 -1.620392 62.768757 7.353598
3300 1 -0.343268 64.997233 7.353598
3301 1 0.349291 -66.482884 7.353598
3302 1 1.626779 -64.254408 7.353598
3303 1 0.330491 -62.025931 7.353598
3304 1 1.606825 -59.797455 7.353598
3305 1 0.309281 -57.568978 7.353598
3306 1 1.584244 -55.340501 7.353598
3307 1 0.285200 -53.112025 7.353598
3308 1 1.558521 -50.883548 7.353598
3309 1 0.257674 -48.655072 7.353598
3310 1 1.529011 -46.426595 7.353598
3311 1 0.225978 -44.198119 7.353598
3312 1 1.494901 -41.969642 7.353598
3313 1 0.189197 -39.741165 7.353598
3314 1 1.455157 -37.512689 7.353598
3315 1 0.146162 -35.284212 7.353598
3316 1 1.408461 -33.055736 7.353598
3317 1 0.095385 -30.827259 7.353598
3318 1 1.353129 -28.598783 7.353598
3319 1 0.034966 -26.370306 7.353598
3320 1 1.287029 -24.141830 7.353598
3321 1 -0.037474 -21.913353 7.353598
3322 1 1.207528 -19.684876 7.353598
3323 1 -0.124801 -17.456400 7.353598
3324 1 1.111595 -15.227923 7.353598
3325 1 -0.230078 -12.999447 7.353598
3326 1 0.996383 -10.770970 7.353598
3327 1 -0.355521 -8.542494 7.353598
3328 1 0.860913 -6.314017 7.353598
3329 1 -0.500088 -4.085540 7.353598
3330 1 0.709069 -1.857064 7.353598
3331 1 1.916731 0.371413 7.353598
3332 1 3.124697 2.599889 7.353598
3333 1 1.761496 4.828366 7.353598
3334 1 2.975018 7.056842 7.353598
3335 1 1.619805 9.285319 7.353598
3336 1 2.842828 11.513796 7.353598
3337 1 1.497779 13.742272 7.353598
3338 1 2.730979 15.970749 7.353598
3339 1 1.395692 18.199225 7.353598
3340 1 2.638000 20.427702 7.353598
3341 1 1.311061 22.656178 7.353598
3342 1 2.560935 24.884655 7.353598
3343 1 1.240811 27.113132 7.353598
3344 1 2.496800 29.341608 7.353598
3345 1 1.182151 31.570085 7.353598
3346 1 2.443042 33.798561 7.353598
3347 1 1.132784 36.027038 7.353598
3348 1 2.397610 38.255514 7.353598
3349 1 1.090886 40.483991 7.353598
3350 1 2.358889 42.712468 7.353598
3351 1 1.055025 44.940944 7.353598
3352 1 2.325611 47.169421 7.353598
3353 1 1.024082 49.397897 7.353598
3354 1 2.296783 51.626374 7.353598
3355 1 0.997176 53.854850 7.353598
3356 1 2.271624 56.083327 7.353598
3357 1 0.973610 58.311804 7.353598
3358 1 2.249514 60.540280 7.353598
3359 1 0.952831 62.768757 7.353598
3360 1 2.229955 64.997233 7.353598
3361 1 -0.938394 -65.740059 9.454625
3362 1 0.339083 -63.511582 9.454625
3363 1 -0.957212 -61.283106 9.454625
3364 1 0.319118 -59.054629 9.454625
3365 1 -0.978425 -56.826153 9.454625
3366 1 0.296546 -54.597676 9.454625
3367 1 -1.002483 -52.369199 9.454625
3368 1 0.270860 -50.140723 9.454625
3369 1 -1.029954 -47.912246 9.454625
3370 1 0.241427 -45.683770 9.454625
3371 1 -1.061548 -43.455293 9.454625
3372 1 0.207446 -41.226817 9.454625
3373 1 -1.098171 -38.998340 9.454625
3374 1 0.167893 -36.769863 9.454625
3375 1 -1.140984 -34.541387 9.454625
3376 1 0.121445 -32.312910 9.454625
3377 1 -1.191495 -30.084434 9.454625
3378 1 0.066380 -27.855957 9.454625
3379 1 -1.251678 -25.627481 9.454625
3380 1 0.000431 -23.399004 9.454625
3381 1 -1.324134 -21.170527 9.454625
3382 1 -0.079373 -18.942051 9.454625
3383 1 -1.412230 -16.713574 9.454625
3384 1 -0.176785 -14.485098 9.454625
3385 1 -1.520006 -12.256621 9.454625
3386 1 -0.295877 -10.028145 9.454625
3387 1 -1.651051 -7.799668 9.454625
3388 1 -0.438871 -5.571191 9.454625
3389 1 -1.804942 -3.342715 9.454625
3390 1 -0.601236 -1.114238 9.454625
3391 1 0.601236 1.114238 9.454625
3392 1 1.804942 3.342715 9.454625
3393 1 0.438871 5.571191 9.454625
3394 1 1.651051 7.799668 9.454625
3395 1 0.295877 10.028145 9.454625
3396 1 1.520006 12.256621 9.454625
3397 1 0.176785 14.485098 9.454625
3398 1 1.412230 16.713574 9.454625
3399 1 0.079373 18.942051 9.454625
3400 1 1.324134 21.170527 9.454625
3401 1 -0.000431 23.399004 9.454625
3402 1 1.251678 25.627481 9.454625
3403 1 -0.066380 27.855957 9.454625
3404 1 1.191495 30.084434 9.454625
3405 1 -0.121445 32.312910 9.454625
3406 1 1.140984 34.541387 9.454625
3407 1 -0.167893 36.769863 9.454625
3408 1 1.098171 38.998340 9.454625
3409 1 -0.207446 41.226817 9.454625
3410 1 1.061548 43.455293 9.454625
3411 1 -0.241427 45.683770 9.454625
3412 1 1.029954 47.912246 9.454625
3413 1 -0.270860 50.140723 9.454625
3414 1 1.002483 52.369199 9.454625
3415 1 -0.296546 54.597676 9.454625
3416 1 0.978425 56.826153 9.454625
3417 1 -0.319118 59.054629 9.454625
3418 1 0.957212 61.283106 9.454625
3419 1 -0.339083 63.511582 9.454625
3420 1 0.938394 65.740059 9.454625
3421 1 1.634829 -65.740059 9.454625
3422 1 -2.234140 -63.511582 9.454625
3423 1 1.616011 -61.283106 9.454625
3424 1 -2.254105 -59.054629 9.454625
3425 1 1.594798 -56.826153 9.454625
3426 1 -2.276677 -54.597676 9.454625
3427 1 1.570740 -52.369199 9.454625
3428 1 -2.302363 -50.140723 9.454625
3429 1 1.543269 -47.912246 9.454625
3430 1 -2.331796 -45.683770 9.454625
3431 1 1.511675 -43.455293 9.454625
3432 1 -2.365777 -41.226817 9.454625
3433 1 1.475052 -38.998340 9.454625
3434 1 -2.405330 -36.769863 9.454625
3435 1 1.432239 -34.541387 9.454625
3436 1 -2.451778 -32.312910 9.454625
3437 1 1.381729 -30.084434 9.454625
3438 1 -2.506843 -27.855957 9.454625
3439 1 1.321545 -25.627481 9.454625
3440 1 -2.572792 -23.399004 9.454625
3441 1 1.249089 -21.170527 9.454625
3442 1 -2.652596 -18.942051 9.454625
3443 1 1.160993 -16.713574 9.454625
3444 1 -2.750008 -14.485098 9.454625
3445 1 1.053218 -12.256621 9.454625
3446 1 -2.869100 -10.028145 9.454625
3447 1 0.922172 -7.799668 9.454625
3448 1 -3.012094 -5.571191 9.454625
3449 1 0.768281 -3.342715 9.454625
3450 1 -3.174459 -1.114238 9.454625
3451 1 3.174459 1.114238 9.454625
3452 1 -0.768281 3.342715 9.454625
3453 1 3.012094 5.571191 9.454625
3454 1 -0.922172 7.799668 9.454625
3455 1 2.869100 10.028145 9.454625
3456 1 -1.053218 12.256621 9.454625
3457 1 2.750008 14.485098 9.454625
3458 1 -1.160993 16.713574 9.454625
3459 1 2.652596 18.942051 9.454625
3460 1 -1.249089 21.170527 9.454625
3461 1 2.572792 23.399004 9.454625
3462 1 -1.321545 25.627481 9.454625
3463 1 2.506843 27.855957 9.454625
3464 1 -1.381729 30.084434 9.454625
3465 1 2.451778 32.312910 9.454625
3466 1 -1.432239 34.541387 9.454625
3467 1 2.405330 36.769863 9.454625
3468 1 -1.475052 38.998340 9.454625
3469 1 2.365777 41.226817 9.454625
3470 1 -1.511675 43.455293 9.454625
3471 1 2.331796 45.683770 9.454625
3472 1 -1.543269 47.912246 9.454625
3473 1 2.302363 50.140723 9.454625
3474 1 -1.570740 52.369199 9.454625
3475 1 2.276677 54.597676 9.454625
3476 1 -1.594798 56.826153 9.454625
3477 1 2.254105 59.054629 9.454625
3478 1 -1.616011 61.283106 9.454625
3479 1 2.234140 63.511582 9.454625
3480 1 -1.634829 65.740059 9.454625
3481 1 0.347656 -64.997233 11.555653
3482 1 1.625169 -62.768757 11.555653
3483 1 0.328918 -60.540280 11.555653
3484 1 1.605303 -58.311804 11.555653
3485 1 0.307827 -56.083327 11.555653
3486 1 1.582878 -53.854850 11.555653
3487 1 0.283946 -51.626374 11.555653
3488 1 1.557405 -49.397897 11.555653
3489 1 0.256729 -47.169421 11.555653
3490 1 1.528273 -44.940944 11.555653
3491 1 0.225489 -42.712468 11.555653
3492 1 1.494706 -40.483991 11.555653
3493 1 0.189347 -38.255514 11.555653
3494 1 1.455706 -36.027038 11.555653
3495 1 0.147165 -33.798561 11.555653
3496 1 1.409968 -31.570085 11.555653
3497 1 0.097436 -29.341608 11.555653
3498 1 1.355741 -27.113132 11.555653
3499 1 0.038114 -24.884655 11.555653
3500 1 1.290617 -22.656178 11.555653
3501 1 -0.033655 -20.427702 11.555653
3502 1 1.211200 -18.199225 11.555653
3503 1 -0.121910 -15.970749 11.555653
3504 1 1.112723 -13.742272 11.555653
3505 1 -0.232150 -11.513796 11.555653
3506 1 0.989156 -9.285319 11.555653
3507 1 -0.370319 -7.056842 11.555653
3508 1 0.835958 -4.828366 11.555653
3509 1 -0.537351 -2.599889 11.555653
3510 1 0.658578 -0.371413 11.555653
3511 1 1.853899 1.857064 11.555653
3512 1 3.052160 4.085540 11.555653
3513 1 1.682909 6.314017 11.555653
3514 1 2.894115 8.542494 11.555653
3515 1 1.539714 10.770970 11.555653
3516 1 2.765794 12.999447 11.555653
3517 1 1.425200 15.227923 11.555653
3518 1 2.663573 17.456400 11.555653
3519 1 1.333700 19.684876 11.555653
3520 1 2.581351 21.913353 11.555653
3521 1 1.259502 24.141830 11.555653
3522 1 2.514113 26.370306 11.555653
3523 1 1.198331 28.598783 11.555653
3524 1 2.458259 30.827259 11.555653
3525 1 1.147163 33.055736 11.555653
3526 1 2.411243 35.284212 11.555653
3527 1 1.103840 37.512689 11.555653
3528 1 2.371221 39.741165 11.555653
3529 1 1.066779 41.969642 11.555653
3530 1 2.336824 44.198119 11.555653
3531 1 1.034789 46.426595 11.555653
3532 1 2.307012 48.655072 11.555653
3533 1 1.006953 50.883548 11.555653
3534 1 2.280975 53.112025 11.555653
3535 1 0.982558 55.340501 11.555653
3536 1 2.258079 57.568978 11.555653
3537 1 0.961035 59.797455 11.555653
3538 1 2.237817 62.025931 11.555653
3539 1 0.941931 64.254408 11.555653
3540 1 2.219781 66.482884 11.555653
3541 1 -2.225567 -64.997233 11.555653
3542 1 -0.948055 -62.768757 11.555653
3543 1 -2.244305 -60.540280 11.555653
3544 1 -0.967920 -58.311804 11.555653
3545 1 -2.265396 -56.083327 11.555653
3546 1 -0.990345 -53.854850 11.555653
3547 1 -2.289277 -51.626374 11.555653
3548 1 -1.015818 -49.397897 11.555653
3549 1 -2.316494 -47.169421 11.555653
3550 1 -1.044950 -44.940944 11.555653
3551 1 -2.347735 -42.712468 11.555653
3552 1 -1.078517 -40.483991 11.555653
3553 1 -2.383877 -38.255514 11.555653
3554 1 -1.117517 -36.027038 11.555653
3555 1 -2.426058 -33.798561 11.555653
3556 1 -1.163255 -31.570085 11.555653
3557 1 -2.475787 -29.341608 11.555653
3558 1 -1.217482 -27.113132 11.555653
3559 1 -2.535109 -24.884655 11.555653
3560 1 -1.282606 -22.656178 11.555653
3561 1 -2.606878 -20.427702 11.555653
3562 1 -1.362023 -18.199225 11.555653
3563 1 -2.695133 -15.970749 11.555653
3564 1 -1.460500 -13.742272 11.555653
3565 1 -2.805373 -11.513796 11.555653
3566 1 -1.584067 -9.285319 11.555653
3567 1 -2.943542 -7.056842 11.555653
3568 1 -1.737265 -4.828366 11.555653
3569 1 -3.110574 -2.599889 11.555653
3570 1 -1.914645 -0.371413 11.555653
3571 1 -0.719324 1.857064 11.555653
3572 1 0.478937 4.085540 11.555653
3573 1 -0.890314 6.314017 11.555653
3574 1 0.320892 8.542494 11.555653
3575 1 -1.033509 10.770970 11.555653
3576 1 0.192571 12.999447 11.555653
3577 1 -1.148023 15.227923 11.555653
3578 1 0.090350 17.456400 11.555653
3579 1 -1.239523 19.684876 11.555653
3580 1 0.008128 21.913353 11.555653
3581 1 -1.313721 24.141830 11.555653
3582 1 -0.059110 26.370306 11.555653
3583 1 -1.374892 28.598783 11.555653
3584 1 -0.114964 30.827259 11.555653
3585 1 -1.426060 33.055736 11.555653
3586 1 -0.161980 35.284212 11.555653
3587 1 -1.469383 37.512689 11.555653
3588 1 -0.202002 39.741165 11.555653
3589 1 -1.506444 41.969642 11.555653
3590 1 -0.236399 44.198119 11.555653
3591 1 -1.538434 46.426595 11.555653
3592 1 -0.266211 48.655072 11.555653
3593 1 -1.566270 50.883548 11.555653
3594 1 -0.292248 53.112025 11.555653
3595 1 -1.590666 55.340501 11.555653
3596 1 -0.315144 57.568978 11.555653
3597 1 -1.612188 59.797455 11.555653
3598 1 -0.335406 62.025931 11.555653
3599 1 -1.631292 64.254408 11.555653
3600 1 -0.353442 66.482884 11.555653
3601 1 -2.217067 -66.482884 13.656681
3602 1 -0.938983 -64.254408 13.656681
3603 1 -2.234609 -62.025931 13.656681
3604 1 -0.957537 -59.797455 13.656681
3605 1 -2.254259 -57.568978 13.656681
3606 1 -0.978376 -55.340501 13.656681
3607 1 -2.276391 -53.112025 13.656681
3608 1 -1.001916 -50.883548 13.656681
3609 1 -2.301466 -48.655072 13.656681
3610 1 -1.028671 -46.426595 13.656681
3611 1 -2.330063 -44.198119 13.656681
3612 1 -1.059292 -41.969642 13.656681
3613 1 -2.362915 -39.741165 13.656681
3614 1 -1.094610 -37.512689 13.656681
3615 1 -2.400970 -35.284212 13.656681
3616 1 -1.135717 -33.055736 13.656681
3617 1 -2.445494 -30.827259 13.656681
3618 1 -1.184091 -28.598783 13.656681
3619 1 -2.498234 -26.370306 13.656681
3620 1 -1.241821 -24.141830 13.656681
3621 1 -2.561722 -21.913353 13.656681
3622 1 -1.312020 -19.684876 13.656681
3623 1 -2.639828 -17.456400 13.656681
3624 1 -1.399539 -15.227923 13.656681
3625 1 -2.738645 -12.999447 13.656681
3626 1 -1.511942 -10.770970 13.656681
3627 1 -2.867222 -8.542494 13.656681
3628 1 -1.659165 -6.314017 13.656681
3629 1 -3.034462 -4.085540 13.656681
3630 1 -1.845108 -1.857064 13.656681
3631 1 -0.660378 0.371413 13.656681
3632 1 0.525320 2.599889 13.656681
3633 1 -0.856011 4.828366 13.656681
3634 1 0.345227 7.056842 13.656681
3635 1 -1.016555 9.285319 13.656681
3636 1 0.204454 11.513796 13.656681
3637 1 -1.139447 13.742272 13.656681
3638 1 0.096857 15.970749 13.656681
3639 1 -1.234263 18.199225 13.656681
3640 1 0.012665 20.427702 13.656681
3641 1 -1.309582 22.656178 13.656681
3642 1 -0.055177 24.884655 13.656681
3643 1 -1.371056 27.113132 13.656681
3644 1 -0.111167 29.341608 13.656681
3645 1 -1.422277 31.570085 13.656681
3646 1 -0.158204 33.798561 13.656681
3647 1 -1.465617 36.027038 13.656681
3648 1 -0.198256 38.255514 13.656681
3649 1 -1.502728 40.483991 13.656681
3650 1 -0.232724 42.712468 13.656681
3651 1 -1.534811 44.940944 13.656681
3652 1 -0.262648 47.169421 13.656681
3653 1 -1.562775 49.397897 13.656681
3654 1 -0.288827 51.626374 13.656681
3655 1 -1.587323 53.854850 13.656681
3656 1 -0.311884 56.083327 13.656681
3657 1 -1.609012 58.311804 13.656681
3658 1 -0.332315 60.540280 13.656681
3659 1 -1.628287 62.768757 13.656681
3660 1 -0.350523 64.997233 13.656681
3661 1 0.356157 -66.482884 13.656681
3662 1 1.634240 -64.254408 13.656681
3663 1 0.338614 -62.025931 13.656681
3664 1 1.615686 -59.797455 13.656681
3665 1 0.318964 -57.568978 13.656681
3666 1 1.594847 -55.340501 13.656681
3667 1 0.296832 -53.112025 13.656681
3668 1 1.571307 -50.883548 13.656681
3669 1 0.271757 -48.655072 13.656681
3670 1 1.544552 -46.426595 13.656681
3671 1 0.243160 -44.198119 13.656681
3672 1 1.513931 -41.969642 13.656681
3673 1 0.210308 -39.741165 13.656681
3674 1 1.478613 -37.512689 13.656681
3675 1 0.172253 -35.284212 13.656681
3676 1 1.437506 -33.055736 13.656681
3677 1 0.127729 -30.827259 13.656681
3678 1 1.389133 -28.598783 13.656681
3679 1 0.074989 -26.370306 13.656681
3680 1 1.331402 -24.141830 13.656681
3681 1 0.011501 -21.913353 13.656681
3682 1 1.261203 -19.684876 13.656681
3683 1 -0.066605 -17.456400 13.656681
3684 1 1.173684 -15.227923 13.656681
3685 1 -0.165422 -12.999447 13.656681
3686 1 1.061281 -10.770970 13.656681
3687 1 -0.293999 -8.542494 13.656681
3688 1 0.914059 -6.314017 13.656681
3689 1 -0.461239 -4.085540 13.656681
3690 1 0.728116 -1.857064 13.656681
3691 1 1.912845 0.371413 13.656681
3692 1 3.098543 2.599889 13.656681
3693 1 1.717212 4.828366 13.656681
3694 1 2.918450 7.056842 13.656681
3695 1 1.556669 9.285319 13.656681
3696 1 2.777677 11.513796 13.656681
3697 1 1.433776 13.742272 13.656681
3698 1 2.670080 15.970749 13.656681
3699 1 1.338960 18.199225 13.656681
3700 1 2.585889 20.427702 13.656681
3701 1 1.263641 22.656178 13.656681
3702 1 2.518046 24.884655 13.656681
3703 1 1.202167 27.113132 13.656681
3704 1 2.462056 29.341608 13.656681
3705 1 1.150946 31.570085 13.656681
3706 1 2.415019 33.798561 13.656681
3707 1 1.107606 36.027038 13.656681
3708 1 2.374967 38.255514 13.656681
3709 1 1.070495 40.483991 13.656681
3710 1 2.340499 42.712468 13.656681
3711 1 1.038412 44.940944 13.656681
3712 1 2.310575 47.169421 13.656681
3713 1 1.010448 49.397897 13.656681
3714 1 2.284396 51.626374 13.656681
3715 1 0.985900 53.854850 13.656681
3716 1 2.261340 56.083327 13.656681
3717 1 0.964211 58.311804 13.656681
3718 1 2.240908 60.540280 13.656681
3719 1 0.944936 62.768757 13.656681
3720 1 2.222700 64.997233 13.656681
3721 1 -0.930047 -65.740059 15.757709
3722 1 0.348154 -63.511582 15.757709
3723 1 -0.947336 -61.283106 15.757709
3724 1 0.329891 -59.054629 15.757709
3725 1 -0.966651 -56.826153 15.757709
3726 1 0.309438 -54.597676 15.757709
3727 1 -0.988339 -52.369199 15.757709
3728 1 0.286409 -50.140723 15.757709
3729 1 -1.012827 -47.912246 15.757709
3730 1 0.260331 -45.683770 15.757709
3731 1 -1.040643 -43.455293 15.757709
3732 1 0.230608 -41.226817 15.757709
3733 1 -1.072463 -38.998340 15.757709
3734 1 0.196475 -36.769863 15.757709
3735 1 -1.109160 -34.541387 15.757709
3736 1 0.156920 -32.312910 15.757709
3737 1 -1.151920 -30.084434 15.757709
3738 1 0.110537 -27.855957 15.757709
3739 1 -1.202436 -25.627481 15.757709
3740 1 0.055253 -23.399004 15.757709
3741 1 -1.263298 -21.170527 15.757709
3742 1 -0.012240 -18.942051 15.757709
3743 1 -1.338815 -16.713574 15.757709
3744 1 -0.097653 -14.485098 15.757709
3745 1 -1.436653 -12.256621 15.757709
3746 1 -0.211291 -10.028145 15.757709
3747 1 -1.570382 -7.799668 15.757709
3748 1 -0.369882 -5.571191 15.757709
3749 1 -1.757400 -3.342715 15.757709
3750 1 -0.584127 -1.114238 15.757709
3751 1 0.584127 1.114238 15.757709
3752 1 1.757400 3.342715 15.757709
3753 1 0.369882 5.571191 15.757709
3754 1 1.570382 7.799668 15.757709
3755 1 0.211291 10.028145 15.757709
3756 1 1.436653 12.256621 15.757709
3757 1 0.097653 14.485098 15.757709
3758 1 1.338815 16.713574 15.757709
3759 1 0.012240 18.942051 15.757709
3760 1 1.263298 21.170527 15.757709
3761 1 -0.055253 23.399004 15.757709
3762 1 1.202436 25.627481 15.757709
3763 1 -0.110537 27.855957 15.757709
3764 1 1.151920 30.084434 15.757709
3765 1 -0.156920 32.312910 15.757709
3766 1 1.109160 34.541387 15.757709
3767 1 -0.196475 36.769863 15.757709
3768 1 1.072463 38.998340 15.757709
3769 1 -0.230608 41.226817 15.757709
3770 1 1.040643 43.455293 15.757709
3771 1 -0.260331 45.683770 15.757709
3772 1 1.012827 47.912246 15.757709
3773 1 -0.286409 50.140723 15.757709
3774 1 0.988339 52.369199 15.757709
3775 1 -0.309438 54.597676 15.757709
3776 1 0.966651 56.826153 15.757709
3777 1 -0.329891 59.054629 15.757709
3778 1 0.947336 61.283106 15.757709
3779 1 -0.348154 63.511582 15.757709
3780 1 0.930047 65.740059 15.757709
3781 1 1.643176 -65.740059 15.757709
3782 1 -2.225069 -63.511582 15.757709
3783 1 1.625887 -61.283106 15.757709
3784 1 -2.243332 -59.054629 15.757709
3785 1 1.606572 -56.826153 15.757709
3786 1 -2.263786 -54.597676 15.757709
3787 1 1.584884 -52.369199 15.757709
3788 1 -2.286814 -50.140723 15.757709
3789 1 1.560397 -47.912246 15.757709
3790 1 -2.312892 -45.683770 15.757709
3791 1 1.532580 -43.455293 15.757709
3792 1 -2.342615 -41.226817 15.757709
3793 1 1.500760 -38.998340 15.757709
3794 1 -2.376748 -36.769863 15.757709
3795 1 1.464063 -34.541387 15.757709
3796 1 -2.416303 -32.312910 15.757709
3797 1 1.421303 -30.084434 15.757709
3798 1 -2.462686 -27.855957 15.757709
3799 1 1.370787 -25.627481 15.757709
3800 1 -2.517970 -23.399004 15.757709
3801 1 1.309925 -21.170527 15.757709
3802 1 -2.585463 -18.942051 15.757709
3803 1 1.234408 -16.713574 15.757709
3804 1 -2.670876 -14.485098 15.757709
3805 1 1.136570 -12.256621 15.757709
3806 1 -2.784514 -10.028145 15.757709
3807 1 1.002841 -7.799668 15.757709
3808 1 -2.943105 -5.571191 15.757709
3809 1 0.815823 -3.342715 15.757709
3810 1 -3.157350 -1.114238 15.757709
3811 1 3.157350 1.114238 15.757709
3812 1 -0.815823 3.342715 15.757709
3813 1 2.943105 5.571191 15.757709
3814 1 -1.002841 7.799668 15.757709
3815 1 2.784514 10.028145 15.757709
3816 1 -1.136570 12.256621 15.757709
3817 1 2.670876 14.485098 15.757709
3818 1 -1.234408 16.713574 15.757709
3819 1 2.585463 18.942051 15.757709
3820 1 -1.309925 21.170527 15.757709
3821 1 2.517970 23.399004 15.757709
3822 1 -1.370787 25.627481 15.757709
3823 1 2.462686 27.855957 15.757709
3824 1 -1.421303 30.084434 15.757709
3825 1 2.416303 32.312910 15.757709
3826 1 -1.464063 34.541387 15.757709
3827 1 2.376748 36.769863 15.757709
3828 1 -1.500760 38.998340 15.757709
3829 1 2.342615 41.226817 15.757709
3830 1 -1.532580 43.455293 15.757709
3831 1 2.312892 45.683770 15.757709
3832 1 -1.560397 47.912246 15.757709
3833 1 2.286814 50.140723 15.757709
3834 1 -1.584884 52.369199 15.757709
3835 1 2.263786 54.597676 15.757709
3836 1 -1.606572 56.826153 15.757709
3837 1 2.243332 59.054629 15.757709
3838 1 -1.625887 61.283106 15.757709
3839 1 2.225069 63.511582 15.757709
3840 1 -1.643176 65.740059 15.757709
3841 1 0.357494 -64.997233 17.858737
3842 1 1.635860 -62.768757 17.858737
3843 1 0.340557 -60.540280 17.858737
3844 1 1.617997 -58.311804 17.858737
3845 1 0.321698 -56.083327 17.858737
3846 1 1.598066 -53.854850 17.858737
3847 1 0.300607 -51.626374 17.858737
3848 1 1.575720 -49.397897 17.858737
3849 1 0.276903 -47.169421 17.858737
3850 1 1.550540 -44.940944 17.858737
3851 1 0.250117 -42.712468 17.858737
3852 1 1.522000 -40.483991 17.858737
3853 1 0.219657 -38.255514 17.858737
3854 1 1.489429 -36.027038 17.858737
3855 1 0.184752 -33.798561 17.858737
3856 1 1.451930 -31.570085 17.858737
3857 1 0.144347 -29.341608 17.858737
3858 1 1.408237 -27.113132 17.858737
3859 1 0.096887 -24.884655 17.858737
3860 1 1.356397 -22.656178 17.858737
3861 1 0.039857 -20.427702 17.858737
3862 1 1.293075 -18.199225 17.858737
3863 1 -0.031297 -15.970749 17.858737
3864 1 1.211875 -13.742272 17.858737
3865 1 -0.125795 -11.513796 17.858737
3866 1 1.099252 -9.285319 17.858737
3867 1 -0.263576 -7.056842 17.858737
3868 1 0.926969 -4.828366 17.858737
3869 1 -0.479437 -2.599889 17.858737
3870 1 0.667505 -0.371413 17.858737
3871 1 1.810964 1.857064 17.858737
3872 1 2.970111 4.085540 17.858737
3873 1 1.579743 6.314017 17.858737
3874 1 2.784117 8.542494 17.858737
3875 1 1.431584 10.770970 17.858737
3876 1 2.664013 12.999447 17.858737
3877 1 1.331677 15.227923 17.858737
3878 1 2.578807 17.456400 17.858737
3879 1 1.257463 19.684876 17.858737
3880 1 2.513073 21.913353 17.858737
3881 1 1.198476 24.141830 17.858737
3882 1 2.459605 26.370306 17.858737
3883 1 1.149632 28.598783 17.858737
3884 1 2.414715 30.827259 17.858737
3885 1 1.108178 33.055736 17.858737
3886 1 2.376285 35.284212 17.858737
3887 1 1.072440 37.512689 17.858737
3888 1 2.342962 39.741165 17.858737
3889 1 1.041298 41.969642 17.858737
3890 1 2.313802 44.198119 17.858737
3891 1 1.013945 46.426595 17.858737
3892 1 2.288101 48.655072 17.858737
3893 1 0.989762 50.883548 17.858737
3894 1 2.265315 53.112025 17.858737
3895 1 0.968264 55.340501 17.858737
3896 1 2.245007 57.568978 17.858737
3897 1 0.949057 59.797455 17.858737
3898 1 2.226821 62.025931 17.858737
3899 1 0.931818 64.254408 17.858737
3900 1 2.210463 66.482884 17.858737
3901 1 -2.215729 -64.997233 17.858737
3902 1 -0.937363 -62.768757 17.858737
3903 1 -2.232667 -60.540280 17.858737
3904 1 -0.955226 -58.311804 17.858737
3905 1 -2.251525 -56.083327 17.858737
3906 1 -0.975158 -53.854850 17.858737
3907 1 -2.272616 -51.626374 17.858737
3908 1 -0.997503 -49.397897 17.858737
3909 1 -2.296320 -47.169421 17.858737
3910 1 -1.022683 -44.940944 17.858737
3911 1 -2.323106 -42.712468 17.858737
3912 1 -1.051223 -40.483991 17.858737
3913 1 -2.353567 -38.255514 17.858737
3914 1 -1.083794 -36.027038 17.858737
3915 1 -2.388471 -33.798561 17.858737
3916 1 -1.121293 -31.570085 17.858737
3917 1 -2.428876 -29.341608 17.858737
3918 1 -1.164986 -27.113132 17.858737
3919 1 -2.476336 -24.884655 17.858737
3920 1 -1.216826 -22.656178 17.858737
3921 1 -2.533366 -20.427702 17.858737
3922 1 -1.280148 -18.199225 17.858737
3923 1 -2.604520 -15.970749 17.858737
3924 1 -1.361348 -13.742272 17.858737
3925 1 -2.699018 -11.513796 17.858737
3926 1 -1.473971 -9.285319 17.858737
3927 1 -2.836799 -7.056842 17.858737
3928 1 -1.646254 -4.828366 17.858737
3929 1 -3.052661 -2.599889 17.858737
3930 1 -1.905718 -0.371413 17.858737
3931 1 -0.762259 1.857064 17.858737
3932 1 0.396888 4.085540 17.858737
3933 1 -0.993480 6.314017 17.858737
3934 1 0.210894 8.542494 17.858737
3935 1 -1.141639 10.770970 17.858737
3936 1 0.090790 12.999447 17.858737
3937 1 -1.241546 15.227923 17.858737
3938 1 0.005583 17.456400 17.858737
3939 1 -1.315760 19.684876 17.858737
3940 1 -0.060150 21.913353 17.858737
3941 1 -1.374747 24.141830 17.858737
3942 1 -0.113618 26.370306 17.858737
3943 1 -1.423591 28.598783 17.858737
3944 1 -0.158509 30.827259 17.858737
3945 1 -1.465045 33.055736 17.858737
3946 1 -0.196938 35.284212 17.858737
3947 1 -1.500783 37.512689 17.858737
3948 1 -0.230261 39.741165 17.858737
3949 1 -1.531925 41.969642 17.858737
3950 1 -0.259421 44.198119 17.858737
3951 1 -1.559279 46.426595 17.858737
3952 1 -0.285122 48.655072 17.858737
3953 1 -1.583461 50.883548 17.858737
3954 1 -0.307908 53.112025 17.858737
3955 1 -1.604959 55.340501 17.858737
3956 1 -0.328216 57.568978 17.858737
3957 1 -1.624166 59.797455 17.858737
3958 1 -0.346402 62.025931 17.858737
3959 1 -1.641405 64.254408 17.858737
3960 1 -0.362760 66.482884 17.858737
3961 1 -2.206622 -66.482884 19.959765
3962 1 -0.927656 -64.254408 19.959765
3963 1 -2.222303 -62.025931 19.959765
3964 1 -0.944144 -59.797455 19.959765
3965 1 -2.239655 -57.568978 19.959765
3966 1 -0.962423 -55.340501 19.959765
3967 1 -2.258928 -53.112025 19.959765
3968 1 -0.982763 -50.883548 19.959765
3969 1 -2.280416 -48.655072 19.959765
3970 1 -1.005488 -46.426595 19.959765
3971 1 -2.304477 -44.198119 19.959765
3972 1 -1.030992 -41.969642 19.959765
3973 1 -2.331545 -39.741165 19.959765
3974 1 -1.059762 -37.512689 19.959765
3975 1 -2.362172 -35.284212 19.959765
3976 1 -1.092427 -33.055736 19.959765
3977 1 -2.397089 -30.827259 19.959765
3978 1 -1.129852 -28.598783 19.959765
3979 1 -2.437341 -26.370306 19.959765
3980 1 -1.173338 -24.141830 19.959765
3981 1 -2.484596 -21.913353 19.959765
3982 1 -1.225097 -19.684876 19.959765
3983 1 -2.541899 -17.456400 19.959765
3984 1 -1.289481 -15.227923 19.959765
3985 1 -2.615732 -12.999447 19.959765
3986 1 -1.376569 -10.770970 19.959765
3987 1 -2.722453 -8.542494 19.959765
3988 1 -1.513911 -6.314017 19.959765
3989 1 -2.908854 -4.085540 19.959765
3990 1 -1.773913 -1.857064 19.959765
3991 1 -0.675584 0.371413 19.959765
3992 1 0.431527 2.599889 19.959765
3993 1 -0.991345 4.828366 19.959765
3994 1 0.198582 7.056842 19.959765
3995 1 -1.158804 9.285319 19.959765
3996 1 0.073072 11.513796 19.959765
3997 1 -1.258041 13.742272 19.959765
3998 1 -0.009048 15.970749 19.959765
3999 1 -1.328390 18.199225 19.959765
4000 1 -0.070859 20.427702 19.959765
4001 1 -1.383704 22.656178 19.959765
4002 1 -0.121019 24.884655 19.959765
4003 1 -1.429633 27.113132 19.959765
4004 1 -0.163375 29.341608 19.959765
4005 1 -1.468902 31.570085 19.959765
4006 1 -0.199932 33.798561 19.959765
4007 1 -1.503042 36.027038 19.959765
4008 1 -0.231896 38.255514 19.959765
4009 1 -1.533031 40.483991 19.959765
4010 1 -0.260082 42.712468 19.959765
4011 1 -1.559564 44.940944 19.959765
4012 1 -0.285092 47.169421 19.959765
4013 1 -1.583168 49.397897 19.959765
4014 1 -0.307395 51.626374 19.959765
4015 1 -1.604264 53.854850 19.959765
4016 1 -0.327371 56.083327 19.959765
4017 1 -1.623197 58.311804 19.959765
4018 1 -0.345333 60.540280 19.959765
4019 1 -1.640255 62.768757 19.959765
4020 1 -0.361546 64.997233 19.959765
4021 1 0.366601 -66.482884 19.959765
4022 1 1.645567 -64.254408 19.959765
4023 1 0.350920 -62.025931 19.959765
4024 1 1.629079 -59.797455 19.959765
4025 1 0.333568 -57.568978 19.959765
4026 1 1.610800 -55.340501 19.959765
4027 1 0.314295 -53.112025 19.959765
4028 1 1.590460 -50.883548 19.959765
4029 1 0.292807 -48.655072 19.959765
4030 1 1.567735 -46.426595 19.959765
4031 1 0.268747 -44.198119 19.959765
4032 1 1.542231 -41.969642 19.959765
4033 1 0.241678 -39.741165 19.959765
4034 1 1.513461 -37.512689 19.959765
4035 1 0.211051 -35.284212 19.959765
4036 1 1.480796 -33.055736 19.959765
4037 1 0.176134 -30.827259 19.959765
4038 1 1.443371 -28.598783 19.959765
4039 1 0.135882 -26.370306 19.959765
4040 1 1.399885 -24.141830 19.959765
4041 1 0.088627 -21.913353 19.959765
4042 1 1.348126 -19.684876 19.959765
4043 1 0.031324 -17.456400 19.959765
4044 1 1.283742 -15.227923 19.959765
4045 1 -0.042509 -12.999447 19.959765
4046 1 1.196654 -10.770970 19.959765
4047 1 -0.149230 -8.542494 19.959765
4048 1 1.059313 -6.314017 19.959765
4049 1 -0.335631 -4.085540 19.959765
4050 1 0.799310 -1.857064 19.959765
4051 1 1.897639 0.371413 19.959765
4052 1 3.004751 2.599889 19.959765
4053 1 1.581878 4.828366 19.959765
4054 1 2.771805 7.056842 19.959765
4055 1 1.414419 9.285319 19.959765
4056 1 2.646295 11.513796 19.959765
4057 1 1.315182 13.742272 19.959765
4058 1 2.564175 15.970749 19.959765
4059 1 1.244833 18.199225 19.959765
4060 1 2.502364 20.427702 19.959765
4061 1 1.189519 22.656178 19.959765
4062 1 2.452204 24.884655 19.959765
4063 1 1.143590 27.113132 19.959765
4064 1 2.409848 29.341608 19.959765
4065 1 1.104321 31.570085 19.959765
4066 1 2.373291 33.798561 19.959765
4067 1 1.070181 36.027038 19.959765
4068 1 2.341327 38.255514 19.959765
4069 1 1.040192 40.483991 19.959765
4070 1 2.313141 42.712468 19.959765
4071 1 1.013659 44.940944 19.959765
4072 1 2.288131 47.169421 19.959765
4073 1 0.990055 49.397897 19.959765
4074 1 2.265828 51.626374 19.959765
4075 1 0.968959 53.854850 19.959765
4076 1 2.245853 56.083327 19.959765
4077 1 0.950026 58.311804 19.959765
4078 1 2.227890 60.540280 19.959765
4079 1 0.932968 62.768757 19.959765
4080 1 2.211677 64.997233 19.959765
4081 1 -0.918242 -65.740059 22.060793
4082 1 0.360952 -63.511582 22.060793
4083 1 -0.933437 -61.283106 22.060793
4084 1 0.345012 -59.054629 22.060793
4085 1 -0.950170 -56.826153 22.060793
4086 1 0.327435 -54.597676 22.060793
4087 1 -0.968648 -52.369199 22.060793
4088 1 0.307998 -50.140723 22.060793
4089 1 -0.989109 -47.912246 22.060793
4090 1 0.286443 -45.683770 22.060793
4091 1 -1.011831 -43.455293 22.060793
4092 1 0.262470 -41.226817 22.060793
4093 1 -1.037144 -38.998340 22.060793
4094 1 0.235718 -36.769863 22.060793
4095 1 -1.065446 -34.541387 22.060793
4096 1 0.205740 -32.312910 22.060793
4097 1 -1.097249 -30.084434 22.060793
4098 1 0.171935 -27.855957 22.060793
4099 1 -1.133276 -25.627481 22.060793
4100 1 0.133403 -23.399004 22.060793
4101 1 -1.174695 -21.170527 22.060793
4102 1 0.088558 -18.942051 22.060793
4103 1 -1.223762 -16.713574 22.060793
4104 1 0.034032 -14.485098 22.060793
4105 1 -1.285789 -12.256621 22.060793
4106 1 -0.039096 -10.028145 22.060793
4107 1 -1.376909 -7.799668 22.060793
4108 1 -0.162791 -5.571191 22.060793
4109 1 -1.567301 -3.342715 22.060793
4110 1 -0.494477 -1.114238 22.060793
4111 1 0.494477 1.114238 22.060793
4112 1 1.567301 3.342715 22.060793
4113 1 0.162791 5.571191 22.060793
4114 1 1.376909 7.799668 22.060793
4115 1 0.039096 10.028145 22.060793
4116 1 1.285789 12.256621 22.060793
4117 1 -0.034032 14.485098 22.060793
4118 1 1.223762 16.713574 22.060793
4119 1 -0.088558 18.942051 22.060793
4120 1 1.174695 21.170527 22.060793
4121 1 -0.133403 23.399004 22.060793
4122 1 1.133276 25.627481 22.060793
4123 1 -0.171935 27.855957 22.060793
4124 1 1.097249 30.084434 22.060793
4125 1 -0.205740 32.312910 22.060793
4126 1 1.065446 34.541387 22.060793
4127 1 -0.235718 36.769863 22.060793
4128 1 1.037144 38.998340 22.060793
4129 1 -0.262470 41.226817 22.060793
4130 1 1.011831 43.455293 22.060793
4131 1 -0.286443 45.683770 22.060793
4132 1 0.989109 47.912246 22.060793
4133 1 -0.307998 50.140723 22.060793
4134 1 0.968648 52.369199 22.060793
4135 1 -0.327435 54.597676 22.060793
4136 1 0.950170 56.826153 22.060793
4137 1 -0.345012 59.054629 22.060793
4138 1 0.933437 61.283106 22.060793
4139 1 -0.360952 63.511582 22.060793
4140 1 0.918242 65.740059 22.060793
4141 1 1.654981 -65.740059 22.060793
4142 1 -2.212271 -63.511582 22.060793
4143 1 1.639786 -61.283106 22.060793
4144 1 -2.228211 -59.054629 22.060793
4145 1 1.623053 -56.826153 22.060793
4146 1 -2.245788 -54.597676 22.060793
4147 1 1.604575 -52.369199 22.060793
4148 1 -2.265225 -50.140723 22.060793
4149 1 1.584114 -47.912246 22.060793
4150 1 -2.286780 -45.683770 22.060793
4151 1 1.561392 -43.455293 22.060793
4152 1 -2.310753 -41.226817 22.060793
4153 1 1.536079 -38.998340 22.060793
4154 1 -2.337505 -36.769863 22.060793
4155 1 1.507777 -34.541387 22.060793
4156 1 -2.367483 -32.312910 22.060793
4157 1 1.475974 -30.084434 22.060793
4158 1 -2.401288 -27.855957 22.060793
4159 1 1.439947 -25.627481 22.060793
4160 1 -2.439820 -23.399004 22.060793
4161 1 1.398528 -21.170527 22.060793
4162 1 -2.484665 -18.942051 22.060793
4163 1 1.349461 -16.713574 22.060793
4164 1 -2.539191 -14.485098 22.060793
4165 1 1.287434 -12.256621 22.060793
4166 1 -2.612319 -10.028145 22.060793
4167 1 1.196314 -7.799668 22.060793
4168 1 -2.736014 -5.571191 22.060793
4169 1 1.005922 -3.342715 22.060793
4170 1 -3.067700 -1.114238 22.060793
4171 1 3.067700 1.114238 22.060793
4172 1 -1.005922 3.342715 22.060793
4173 1 2.736014 5.571191 22.060793
4174 1 -1.196314 7.799668 22.060793
4175 1 2.612319 10.028145 22.060793
4176 1 -1.287434 12.256621 22.060793
4177 1 2.539191 14.485098 22.060793
4178 1 -1.349461 16.713574 22.060793
4179 1 2.484665 18.942051 22.060793
4180 1 -1.398528 21.170527 22.060793
4181 1 2.439820 23.399004 22.060793
4182 1 -1.439947 25.627481 22.060793
4183 1 2.401288 27.855957 22.060793
4184 1 -1.475974 30.084434 22.060793
4185 1 2.367483 32.312910 22.060793
4186 1 -1.507777 34.541387 22.060793
4187 1 2.337505 36.769863 22.060793
4188 1 -1.536079 38.998340 22.060793
4189 1 2.310753 41.226817 22.060793
4190 1 -1.561392 43.455293 22.060793
4191 1 2.286780 45.683770 22.060793
4192 1 -1.584114 47.912246 22.060793
4193 1 2.265225 50.140723 22.060793
4194 1 -1.604575 52.369199 22.060793
4195 1 2.245788 54.597676 22.060793
4196 1 -1.623053 56.826153 22.060793
4197 1 2.228211 59.054629 22.060793
4198 1 -1.639786 61.283106 22.060793
4199 1 2.212271 63.511582 22.060793
4200 1 -1.654981 65.740059 22.060793
4201 1 0.370633 -64.997233 24.161820
4202 1 1.650097 -62.768757 24.161820
4203 1 0.356010 -60.540280 24.161820
4204 1 1.634800 -58.311804 24.161820
4205 1 0.340002 -56.083327 24.161820
4206 1 1.618042 -53.854850 24.161820
4207 1 0.322451 -51.626374 24.161820
4208 1 1.599655 -49.397897 24.161820
4209 1 0.303183 -47.169421 24.161820
4210 1 1.579457 -44.940944 24.161820
4211 1 0.282007 -42.712468 24.161820
4212 1 1.557253 -40.483991 24.161820
4213 1 0.258722 -38.255514 24.161820
4214 1 1.532834 -36.027038 24.161820
4215 1 0.233112 -33.798561 24.161820
4216 1 1.505973 -31.570085 24.161820
4217 1 0.204938 -29.341608 24.161820
4218 1 1.476415 -27.113132 24.161820
4219 1 0.173913 -24.884655 24.161820
4220 1 1.443822 -22.656178 24.161820
4221 1 0.139616 -20.427702 24.161820
4222 1 1.407626 -18.199225 24.161820
4223 1 0.101222 -15.970749 24.161820
4224 1 1.366539 -13.742272 24.161820
4225 1 0.056563 -11.513796 24.161820
4226 1 1.316603 -9.285319 24.161820
4227 1 -0.002381 -7.056842 24.161820
4228 1 1.238797 -4.828366 24.161820
4229 1 -0.135720 -2.599889 24.161820
4230 1 0.785564 -0.371413 24.161820
4231 1 1.482049 1.857064 24.161820
4232 1 2.642484 4.085540 24.161820
4233 1 1.302042 6.314017 24.161820
4234 1 2.553172 8.542494 24.161820
4235 1 1.238466 10.770970 24.161820
4236 1 2.500814 12.999447 24.161820
4237 1 1.192300 15.227923 24.161820
4238 1 2.458662 17.456400 24.161820
4239 1 1.153077 19.684876 24.161820
4240 1 2.421774 21.913353 24.161820
4241 1 1.118172 24.141830 24.161820
4242 1 2.388630 26.370306 24.161820
4243 1 1.086638 28.598783 24.161820
4244 1 2.358593 30.827259 24.161820
4245 1 1.058010 33.055736 24.161820
4246 1 2.331302 35.284212 24.161820
4247 1 1.031990 37.512689 24.161820
4248 1 2.306492 39.741165 24.161820
4249 1 1.008333 41.969642 24.161820
4250 1 2.283934 44.198119 24.161820
4251 1 0.986821 46.426595 24.161820
4252 1 2.263415 48.655072 24.161820
4253 1 0.967247 50.883548 24.161820
4254 1 2.244739 53.112025 24.161820
4255 1 0.949423 55.340501 24.161820
4256 1 2.227722 57.568978 24.161820
4257 1 0.933169 59.797455 24.161820
4258 1 2.212192 62.025931 24.161820
4259 1 0.918326 64.254408 24.161820
4260 1 2.197998 66.482884 24.161820
4261 1 -2.202590 -64.997233 24.161820
4262 1 -0.923126 -62.768757 24.161820
4263 1 -2.217213 -60.540280 24.161820
4264 1 -0.938423 -58.311804 24.161820
4265 1 -2.233221 -56.083327 24.161820
4266 1 -0.955181 -53.854850 24.161820
4267 1 -2.250772 -51.626374 24.161820
4268 1 -0.973568 -49.397897 24.161820
4269 1 -2.270041 -47.169421 24.161820
4270 1 -0.993766 -44.940944 24.161820
4271 1 -2.291216 -42.712468 24.161820
4272 1 -1.015970 -40.483991 24.161820
4273 1 -2.314501 -38.255514 24.161820
4274 1 -1.040390 -36.027038 24.161820
4275 1 -2.340111 -33.798561 24.161820
4276 1 -1.067250 -31.570085 24.161820
4277 1 -2.368285 -29.341608 24.161820
4278 1 -1.096808 -27.113132 24.161820
4279 1 -2.399310 -24.884655 24.161820
4280 1 -1.129401 -22.656178 24.161820
4281 1 -2.433607 -20.427702 24.161820
4282 1 -1.165597 -18.199225 24.161820
4283 1 -2.472001 -15.970749 24.161820
4284 1 -1.206684 -13.742272 24.161820
4285 1 -2.516660 -11.513796 24.161820
4286 1 -1.256620 -9.285319 24.161820
4287 1 -2.575605 -7.056842 24.161820
4288 1 -1.334426 -4.828366 24.161820
4289 1 -2.708943 -2.599889 24.161820
4290 1 -1.787659 -0.371413 24.161820
4291 1 -1.091174 1.857064 24.161820
4292 1 0.069261 4.085540 24.161820
4293 1 -1.271181 6.314017 24.161820
4294 1 -0.020051 8.542494 24.161820
4295 1 -1.334757 10.770970 24.161820
4296 1 -0.072409 12.999447 24.161820
4297 1 -1.380923 15.227923 24.161820
4298 1 -0.114561 17.456400 24.161820
4299 1 -1.420146 19.684876 24.161820
4300 1 -0.151449 21.913353 24.161820
4301 1 -1.455051 24.141830 24.161820
4302 1 -0.184593 26.370306 24.161820
4303 1 -1.486586 28.598783 24.161820
4304 1 -0.214630 30.827259 24.161820
4305 1 -1.515213 33.055736 24.161820
4306 1 -0.241921 35.284212 24.161820
4307 1 -1.541233 37.512689 24.161820
4308 1 -0.266731 39.741165 24.161820
4309 1 -1.564890 41.969642 24.161820
4310 1 -0.289290 44.198119 24.161820
4311 1 -1.586403 46.426595 24.161820
4312 1 -0.309808 48.655072 24.161820
4313 1 -1.605976 50.883548 24.161820
4314 1 -0.328484 53.112025 24.161820
4315 1 -1.623800 55.340501 24.161820
4316 1 -0.345501 57.568978 24.161820
4317 1 -1.640054 59.797455 24.161820
4318 1 -0.361031 62.025931 24.161820
4319 1 -1.654897 64.254408 24.161820
4320 1 -0.375226 66.482884 24.161820
4321 1 -2.193272 -66.482884 26.262848
4322 1 -0.913223 -64.254408 26.262848
4323 1 -2.206674 -62.025931 26.262848
4324 1 -0.927191 -59.797455 26.262848
4325 1 -2.221235 -57.568978 26.262848
4326 1 -0.942372 -55.340501 26.262848
4327 1 -2.237062 -53.112025 26.262848
4328 1 -0.958872 -50.883548 26.262848
4329 1 -2.254261 -48.655072 26.262848
4330 1 -0.976794 -46.426595 26.262848
4331 1 -2.272928 -44.198119 26.262848
4332 1 -0.996227 -41.969642 26.262848
4333 1 -2.293142 -39.741165 26.262848
4334 1 -1.017231 -37.512689 26.262848
4335 1 -2.314940 -35.284212 26.262848
4336 1 -1.039814 -33.055736 26.262848
4337 1 -2.338287 -30.827259 26.262848
4338 1 -1.063888 -28.598783 26.262848
4339 1 -2.363027 -26.370306 26.262848
4340 1 -1.089201 -24.141830 26.262848
4341 1 -2.388777 -21.913353 26.262848
4342 1 -1.115189 -19.684876 26.262848
4343 1 -2.414707 -17.456400 26.262848
4344 1 -1.140608 -15.227923 26.262848
4345 1 -2.438892 -12.999447 26.262848
4346 1 -1.162318 -10.770970 26.262848
4347 1 -2.455760 -8.542494 26.262848
4348 1 -1.169106 -6.314017 26.262848
4349 1 -2.437714 -4.085540 26.262848
4350 1 -1.061009 -1.857064 26.262848
4351 1 -1.793695 0.371413 26.262848
4352 1 -0.177932 2.599889 26.262848
4353 1 -1.412651 4.828366 26.262848
4354 1 -0.116319 7.056842 26.262848
4355 1 -1.405839 9.285319 26.262848
4356 1 -0.127385 11.513796 26.262848
4357 1 -1.424701 13.742272 26.262848
4358 1 -0.150108 15.970749 26.262848
4359 1 -1.449402 18.199225 26.262848
4360 1 -0.175761 20.427702 26.262848
4361 1 -1.475392 22.656178 26.262848
4362 1 -0.201697 24.884655 26.262848
4363 1 -1.501016 27.113132 26.262848
4364 1 -0.226831 29.341608 26.262848
4365 1 -1.525542 31.570085 26.262848
4366 1 -0.250669 33.798561 26.262848
4367 1 -1.548638 36.027038 26.262848
4368 1 -0.272991 38.255514 26.262848
4369 1 -1.570171 40.483991 26.262848
4370 1 -0.293731 42.712468 26.262848
4371 1 -1.590123 44.940944 26.262848
4372 1 -0.312907 47.169421 26.262848
4373 1 -1.608540 49.397897 26.262848
4374 1 -0.330586 51.626374 26.262848
4375 1 -1.625503 53.854850 26.262848
4376 1 -0.346859 56.083327 26.262848
4377 1 -1.641112 58.311804 26.262848
4378 1 -0.361830 60.540280 26.262848
4379 1 -1.655472 62.768757 26.262848
4380 1 -0.375606 64.997233 26.262848
4381 1 0.379951 -66.482884 26.262848
4382 1 1.660000 -64.254408 26.262848
4383 1 0.366549 -62.025931 26.262848
4384 1 1.646032 -59.797455 26.262848
4385 1 0.351988 -57.568978 26.262848
4386 1 1.630851 -55.340501 26.262848
4387 1 0.336161 -53.112025 26.262848
4388 1 1.614351 -50.883548 26.262848
4389 1 0.318962 -48.655072 26.262848
4390 1 1.596429 -46.426595 26.262848
4391 1 0.300295 -44.198119 26.262848
4392 1 1.576996 -41.969642 26.262848
4393 1 0.280081 -39.741165 26.262848
4394 1 1.555992 -37.512689 26.262848
4395 1 0.258283 -35.284212 26.262848
4396 1 1.533409 -33.055736 26.262848
4397 1 0.234936 -30.827259 26.262848
4398 1 1.509335 -28.598783 26.262848
4399 1 0.210196 -26.370306 26.262848
4400 1 1.484022 -24.141830 26.262848
4401 1 0.184446 -21.913353 26.262848
4402 1 1.458034 -19.684876 26.262848
4403 1 0.158516 -17.456400 26.262848
4404 1 1.432615 -15.227923 26.262848
4405 1 0.134331 -12.999447 26.262848
4406 1 1.410905 -10.770970 26.262848
4407 1 0.117463 -8.542494 26.262848
4408 1 1.404117 -6.314017 26.262848
4409 1 0.135509 -4.085540 26.262848
4410 1 1.512214 -1.857064 26.262848
4411 1 0.779528 0.371413 26.262848
4412 1 2.395291 2.599889 26.262848
4413 1 1.160572 4.828366 26.262848
4414 1 2.456904 7.056842 26.262848
4415 1 1.167385 9.285319 26.262848
4416 1 2.445839 11.513796 26.262848
4417 1 1.148522 13.742272 26.262848
4418 1 2.423115 15.970749 26.262848
4419 1 1.123821 18.199225 26.262848
4420 1 2.397462 20.427702 26.262848
4421 1 1.097831 22.656178 26.262848
4422 1 2.371526 24.884655 26.262848
4423 1 1.072208 27.113132 26.262848
4424 1 2.346392 29.341608 26.262848
4425 1 1.047681 31.570085 26.262848
4426 1 2.322554 33.798561 26.262848
4427 1 1.024586 36.027038 26.262848
4428 1 2.300232 38.255514 26.262848
4429 1 1.003052 40.483991 26.262848
4430 1 2.279492 42.712468 26.262848
4431 1 0.983100 44.940944 26.262848
4432 1 2.260316 47.169421 26.262848
4433 1 0.964683 49.397897 26.262848
4434 1 2.242637 51.626374 26.262848
4435 1 0.947720 53.854850 26.262848
4436 1 2.226365 56.083327 26.262848
4437 1 0.932111 58.311804 26.262848
4438 1 2.211393 60.540280 26.262848
4439 1 0.917751 62.768757 26.262848
4440 1 2.197617 64.997233 26.262848
4441 1 -0.903733 -65.740059 28.363876
4442 1 0.376626 -63.511582 28.363876
4443 1 -0.916478 -61.283106 28.363876
4444 1 0.363393 -59.054629 28.363876
4445 1 -0.930217 -56.826153 28.363876
4446 1 0.349134 -54.597676 28.363876
4447 1 -0.945008 -52.369199 28.363876
4448 1 0.333800 -50.140723 28.363876
4449 1 -0.960891 -47.912246 28.363876
4450 1 0.317365 -45.683770 28.363876
4451 1 -0.977873 -43.455293 28.363876
4452 1 0.299849 -41.226817 28.363876
4453 1 -0.995900 -38.998340 28.363876
4454 1 0.281346 -36.769863 28.363876
4455 1 -1.014824 -34.541387 28.363876
4456 1 0.262080 -32.312910 28.363876
4457 1 -1.034324 -30.084434 28.363876
4458 1 0.242499 -27.855957 28.363876
4459 1 -1.053776 -25.627481 28.363876
4460 1 0.223468 -23.399004 28.363876
4461 1 -1.071973 -21.170527 28.363876
4462 1 0.206697 -18.942051 28.363876
4463 1 -1.086442 -16.713574 28.363876
4464 1 0.195877 -14.485098 28.363876
4465 1 -1.091433 -12.256621 28.363876
4466 1 0.200483 -10.028145 28.363876
4467 1 -1.070141 -7.799668 28.363876
4468 1 0.253268 -5.571191 28.363876
4469 1 -0.951492 -3.342715 28.363876
4470 1 0.512645 -1.114238 28.363876
4471 1 -0.512645 1.114238 28.363876
4472 1 0.951492 3.342715 28.363876
4473 1 -0.253268 5.571191 28.363876
4474 1 1.070141 7.799668 28.363876
4475 1 -0.200483 10.028145 28.363876
4476 1 1.091433 12.256621 28.363876
4477 1 -0.195877 14.485098 28.363876
4478 1 1.086442 16.713574 28.363876
4479 1 -0.206697 18.942051 28.363876
4480 1 1.071973 21.170527 28.363876
4481 1 -0.223468 23.399004 28.363876
4482 1 1.053776 25.627481 28.363876
4483 1 -0.242499 27.855957 28.363876
4484 1 1.034324 30.084434 28.363876
4485 1 -0.262080 32.312910 28.363876
4486 1 1.014824 34.541387 28.363876
4487 1 -0.281346 36.769863 28.363876
4488 1 0.995900 38.998340 28.363876
4489 1 -0.299849 41.226817 28.363876
4490 1 0.977873 43.455293 28.363876
4491 1 -0.317365 45.683770 28.363876
4492 1 0.960891 47.912246 28.363876
4493 1 -0.333800 50.140723 28.363876
4494 1 0.945008 52.369199 28.363876
4495 1 -0.349134 54.597676 28.363876
4496 1 0.930217 56.826153 28.363876
4497 1 -0.363393 59.054629 28.363876
4498 1 0.916478 61.283106 28.363876
4499 1 -0.376626 63.511582 28.363876
4500 1 0.903733 65.740059 28.363876
4501 1 1.669490 -65.740059 28.363876
4502 1 -2.196597 -63.511582 28.363876
4503 1 1.656745 -61.283106 28.363876
4504 1 -2.209831 -59.054629 28.363876
4505 1 1.643006 -56.826153 28.363876
4506 1 -2.224089 -54.597676 28.363876
4507 1 1.628215 -52.369199 28.363876
4508 1 -2.239423 -50.140723 28.363876
4509 1 1.612332 -47.912246 28.363876
4510 1 -2.255858 -45.683770 28.363876
4511 1 1.595351 -43.455293 28.363876
4512 1 -2.273374 -41.226817 28.363876
4513 1 1.577323 -38.998340 28.363876
4514 1 -2.291877 -36.769863 28.363876
4515 1 1.558399 -34.541387 28.363876
4516 1 -2.311143 -32.312910 28.363876
4517 1 1.538899 -30.084434 28.363876
4518 1 -2.330724 -27.855957 28.363876
4519 1 1.519447 -25.627481 28.363876
4520 1 -2.349755 -23.399004 28.363876
4521 1 1.501250 -21.170527 28.363876
4522 1 -2.366526 -18.942051 28.363876
4523 1 1.486781 -16.713574 28.363876
4524 1 -2.377346 -14.485098 28.363876
4525 1 1.481790 -12.256621 28.363876
4526 1 -2.372740 -10.028145 28.363876
4527 1 1.503082 -7.799668 28.363876
4528 1 -2.319955 -5.571191 28.363876
4529 1 1.621731 -3.342715 28.363876
4530 1 -2.060578 -1.114238 28.363876
4531 1 2.060578 1.114238 28.363876
4532 1 -1.621731 3.342715 28.363876
4533 1 2.319955 5.571191 28.363876
4534 1 -1.503082 7.799668 28.363876
4535 1 2.372740 10.028145 28.363876
4536 1 -1.481790 12.256621 28.363876
4537 1 2.377346 14.485098 28.363876
4538 1 -1.486781 16.713574 28.363876
4539 1 2.366526 18.942051 28.363876
4540 1 -1.501250 21.170527 28.363876
4541 1 2.349755 23.399004 28.363876
4542 1 -1.519447 25.627481 28.363876
4543 1 2.330724 27.855957 28.363876
4544 1 -1.538899 30.084434 28.363876
4545 1 2.311143 32.312910 28.363876
4546 1 -1.558399 34.541387 28.363876
4547 1 2.291877 36.769863 28.363876
4548 1 -1.577323 38.998340 28.363876
4549 1 2.273374 41.226817 28.363876
4550 1 -1.595351 43.455293 28.363876
4551 1 2.255858 45.683770 28.363876
4552 1 -1.612332 47.912246 28.363876
4553 1 2.239423 50.140723 28.363876
4554 1 -1.628215 52.369199 28.363876
4555 1 2.224089 54.597676 28.363876
4556 1 -1.643006 56.826153 28.363876
4557 1 2.209831 59.054629 28.363876
4558 1 -1.656745 61.283106 28.363876
4559 1 2.196597 63.511582 28.363876
4560 1 -1.669490 65.740059 28.363876
4561 1 0.386244 -64.997233 30.464904
4562 1 1.666946 -62.768757 30.464904
4563 1 0.374224 -60.540280 30.464904
4564 1 1.654519 -58.311804 30.464904
4565 1 0.361386 -56.083327 30.464904
4566 1 1.641269 -53.854850 30.464904
4567 1 0.347724 -51.626374 30.464904
4568 1 1.627203 -49.397897 30.464904
4569 1 0.333269 -47.169421 30.464904
4570 1 1.612380 -44.940944 30.464904
4571 1 0.318109 -42.712468 30.464904
4572 1 1.596929 -40.483991 30.464904
4573 1 0.302430 -38.255514 30.464904
4574 1 1.581107 -36.027038 30.464904
4575 1 0.286580 -33.798561 30.464904
4576 1 1.565380 -31.570085 30.464904
4577 1 0.271177 -29.341608 30.464904
4578 1 1.550572 -27.113132 30.464904
4579 1 0.257328 -24.884655 30.464904
4580 1 1.538181 -22.656178 30.464904
4581 1 0.247086 -20.427702 30.464904
4582 1 1.531067 -18.199225 30.464904
4583 1 0.244532 -15.970749 30.464904
4584 1 1.535231 -13.742272 30.464904
4585 1 0.258796 -11.513796 30.464904
4586 1 1.565122 -9.285319 30.464904
4587 1 0.313680 -7.056842 30.464904
4588 1 1.660915 -4.828366 30.464904
4589 1 0.474183 -2.599889 30.464904
4590 1 1.903738 -0.371413 30.464904
4591 1 0.768828 1.857064 30.464904
4592 1 2.170654 4.085540 30.464904
4593 1 0.956191 6.314017 30.464904
4594 1 2.285100 8.542494 30.464904
4595 1 1.022531 10.770970 30.464904
4596 1 2.322022 12.999447 30.464904
4597 1 1.041245 15.227923 30.464904
4598 1 2.329095 17.456400 30.464904
4599 1 1.040643 19.684876 30.464904
4600 1 2.323314 21.913353 30.464904
4601 1 1.031317 24.141830 30.464904
4602 1 2.311551 26.370306 30.464904
4603 1 1.017891 28.598783 30.464904
4604 1 2.297017 30.827259 30.464904
4605 1 1.002652 33.055736 30.464904
4606 1 2.281372 35.284212 30.464904
4607 1 0.986824 37.512689 30.464904
4608 1 2.265526 39.741165 30.464904
4609 1 0.971087 41.969642 30.464904
4610 1 2.249992 44.198119 30.464904
4611 1 0.955824 46.426595 30.464904
4612 1 2.235052 48.655072 30.464904
4613 1 0.941243 50.883548 30.464904
4614 1 2.220855 53.112025 30.464904
4615 1 0.927446 55.340501 30.464904
4616 1 2.207466 57.568978 30.464904
4617 1 0.914470 59.797455 30.464904
4618 1 2.194903 62.025931 30.464904
4619 1 0.902315 64.254408 30.464904
4620 1 2.183149 66.482884 30.464904
4621 1 -2.186979 -64.997233 30.464904
4622 1 -0.906277 -62.768757 30.464904
4623 1 -2.199000 -60.540280 30.464904
4624 1 -0.918704 -58.311804 30.464904
4625 1 -2.211837 -56.083327 30.464904
4626 1 -0.931955 -53.854850 30.464904
4627 1 -2.225499 -51.626374 30.464904
4628 1 -0.946020 -49.397897 30.464904
4629 1 -2.239954 -47.169421 30.464904
4630 1 -0.960844 -44.940944 30.464904
4631 1 -2.255114 -42.712468 30.464904
4632 1 -0.976294 -40.483991 30.464904
4633 1 -2.270793 -38.255514 30.464904
4634 1 -0.992116 -36.027038 30.464904
4635 1 -2.286643 -33.798561 30.464904
4636 1 -1.007843 -31.570085 30.464904
4637 1 -2.302046 -29.341608 30.464904
4638 1 -1.022651 -27.113132 30.464904
4639 1 -2.315895 -24.884655 30.464904
4640 1 -1.035042 -22.656178 30.464904
4641 1 -2.326137 -20.427702 30.464904
4642 1 -1.042156 -18.199225 30.464904
4643 1 -2.328691 -15.970749 30.464904
4644 1 -1.037992 -13.742272 30.464904
4645 1 -2.314427 -11.513796 30.464904
4646 1 -1.008101 -9.285319 30.464904
4647 1 -2.259543 -7.056842 30.464904
4648 1 -0.912308 -4.828366 30.464904
4649 1 -2.099040 -2.599889 30.464904
4650 1 -0.669485 -0.371413 30.464904
4651 1 -1.804395 1.857064 30.464904
4652 1 -0.402569 4.085540 30.464904
4653 1 -1.617032 6.314017 30.464904
4654 1 -0.288123 8.542494 30.464904
4655 1 -1.550692 10.770970 30.464904
4656 1 -0.251201 12.999447 30.464904
4657 1 -1.531978 15.227923 30.464904
4658 1 -0.244128 17.456400 30.464904
4659 1 -1.532580 19.684876 30.464904
4660 1 -0.249909 21.913353 30.464904
4661 1 -1.541906 24.141830 30.464904
4662 1 -0.261672 26.370306 30.464904
4663 1 -1.555332 28.598783 30.464904
4664 1 -0.276206 30.827259 30.464904
4665 1 -1.570571 33.055736 30.464904
4666 1 -0.291851 35.284212 30.464904
4667 1 -1.586399 37.512689 30.464904
4668 1 -0.307697 39.741165 30.464904
4669 1 -1.602136 41.969642 30.464904
4670 1 -0.323231 44.198119 30.464904
4671 1 -1.617399 46.426595 30.464904
4672 1 -0.338171 48.655072 30.464904
4673 1 -1.631980 50.883548 30.464904
4674 1 -0.352369 53.112025 30.464904
4675 1 -1.645777 55.340501 30.464904
4676 1 -0.365757 57.568978 30.464904
4677 1 -1.658753 59.797455 30.464904
4678 1 -0.378320 62.025931 30.464904
4679 1 -1.670908 64.254408 30.464904
4680 1 -0.390074 66.482884 30.464904
4681 1 -2.177813 -66.482884 32.565932
4682 1 -0.896578 -64.254408 32.565932
4683 1 -2.188728 -62.025931 32.565932
4684 1 -0.907814 -59.797455 32.565932
4685 1 -2.200282 -57.568978 32.565932
4686 1 -0.919681 -55.340501 32.565932
4687 1 -2.212449 -53.112025 32.565932
4688 1 -0.932131 -50.883548 32.565932
4689 1 -2.225157 -48.655072 32.565932
4690 1 -0.945064 -46.426595 32.565932
4691 1 -2.238269 -44.198119 32.565932
4692 1 -0.958294 -41.969642 32.565932
4693 1 -2.251539 -39.741165 32.565932
4694 1 -0.971500 -37.512689 32.565932
4695 1 -2.264549 -35.284212 32.565932
4696 1 -0.984141 -33.055736 32.565932
4697 1 -2.276598 -30.827259 32.565932
4698 1 -0.995306 -28.598783 32.565932
4699 1 -2.286496 -26.370306 32.565932
4700 1 -1.003431 -24.141830 32.565932
4701 1 -2.292166 -21.913353 32.565932
4702 1 -1.005717 -19.684876 32.565932
4703 1 -2.289779 -17.456400 32.565932
4704 1 -0.996831 -15.227923 32.565932
4705 1 -2.271756 -12.999447 32.565932
4706 1 -0.965801 -10.770970 32.565932
4707 1 -2.222029 -8.542494 32.565932
4708 1 -0.889290 -6.314017 32.565932
4709 1 -2.108693 -4.085540 32.565932
4710 1 -0.731454 -1.857064 32.565932
4711 1 -1.911883 0.371413 32.565932
4712 1 -0.522545 2.599889 32.565932
4713 1 -1.726119 4.828366 32.565932
4714 1 -0.379859 7.056842 32.565932
4715 1 -1.626188 9.285319 32.565932
4716 1 -0.313329 11.513796 32.565932
4717 1 -1.583465 13.742272 32.565932
4718 1 -0.287164 15.970749 32.565932
4719 1 -1.568846 18.199225 32.565932
4720 1 -0.280690 20.427702 32.565932
4721 1 -1.568189 22.656178 32.565932
4722 1 -0.284227 24.884655 32.565932
4723 1 -1.574766 27.113132 32.565932
4724 1 -0.293008 29.341608 32.565932
4725 1 -1.585136 31.570085 32.565932
4726 1 -0.304505 33.798561 32.565932
4727 1 -1.597411 36.027038 32.565932
4728 1 -0.317291 38.255514 32.565932
4729 1 -1.610503 40.483991 32.565932
4730 1 -0.330532 42.712468 32.565932
4731 1 -1.623770 44.940944 32.565932
4732 1 -0.343730 47.169421 32.565932
4733 1 -1.636828 49.397897 32.565932
4734 1 -0.356593 51.626374 32.565932
4735 1 -1.649454 53.854850 32.565932
4736 1 -0.368951 56.083327 32.565932
4737 1 -1.661522 58.311804 32.565932
4738 1 -0.380714 60.540280 32.565932
4739 1 -1.672971 62.768757 32.565932
4740 1 -0.391844 64.997233 32.565932
4741 1 0.395410 -66.482884 32.565932
4742 1 1.676645 -64.254408 32.565932
4743 1 0.384495 -62.025931 32.565932
4744 1 1.665409 -59.797455 32.565932
4745 1 0.372941 -57.568978 32.565932
4746 1 1.653543 -55.340501 32.565932
4747 1 0.360774 -53.112025 32.565932
4748 1 1.641093 -50.883548 32.565932
4749 1 0.348066 -48.655072 32.565932
4750 1 1.628159 -46.426595 32.565932
4751 1 0.334954 -44.198119 32.565932
4752 1 1.614929 -41.969642 32.565932
4753 1 0.321684 -39.741165 32.565932
4754 1 1.601723 -37.512689 32.565932
4755 1 0.308674 -35.284212 32.565932
4756 1 1.589082 -33.055736 32.565932
4757 1 0.296626 -30.827259 32.565932
4758 1 1.577917 -28.598783 32.565932
4759 1 0.286727 -26.370306 32.565932
4760 1 1.569792 -24.141830 32.565932
4761 1 0.281057 -21.913353 32.565932
4762 1 1.567506 -19.684876 32.565932
4763 1 0.283444 -17.456400 32.565932
4764 1 1.576392 -15.227923 32.565932
4765 1 0.301467 -12.999447 32.565932
4766 1 1.607422 -10.770970 32.565932
4767 1 0.351195 -8.542494 32.565932
4768 1 1.683933 -6.314017 32.565932
4769 1 0.464530 -4.085540 32.565932
4770 1 1.841769 -1.857064 32.565932
4771 1 0.661341 0.371413 32.565932
4772 1 2.050679 2.599889 32.565932
4773 1 0.847104 4.828366 32.565932
4774 1 2.193364 7.056842 32.565932
4775 1 0.947035 9.285319 32.565932
4776 1 2.259894 11.513796 32.565932
4777 1 0.989758 13.742272 32.565932
4778 1 2.286059 15.970749 32.565932
4779 1 1.004377 18.199225 32.565932
4780 1 2.292533 20.427702 32.565932
4781 1 1.005034 22.656178 32.565932
4782 1 2.288997 24.884655 32.565932
4783 1 0.998457 27.113132 32.565932
4784 1 2.280215 29.341608 32.565932
4785 1 0.988087 31.570085 32.565932
4786 1 2.268718 33.798561 32.565932
4787 1 0.975812 36.027038 32.565932
4788 1 2.255932 38.255514 32.565932
4789 1 0.962720 40.483991 32.565932
4790 1 2.242691 42.712468 32.565932
4791 1 0.949453 44.940944 32.565932
4792 1 2.229493 47.169421 32.565932
4793 1 0.936395 49.397897 32.565932
4794 1 2.216630 51.626374 32.565932
4795 1 0.923769 53.854850 32.565932
4796 1 2.204272 56.083327 32.565932
4797 1 0.911701 58.311804 32.565932
4798 1 2.192509 60.540280 32.565932
4799 1 0.900252 62.768757 32.565932
4800 1 2.181380 64.997233 32.565932
4801 1 -0.887367 -65.740059 34.666960
4802 1 0.394227 -63.511582 34.666960
4803 1 -0.897525 -61.283106 34.666960
4804 1 0.383829 -59.054629 34.666960
4805 1 -0.908150 -56.826153 34.666960
4806 1 0.372995 -54.597676 34.666960
4807 1 -0.919169 -52.369199 34.666960
4808 1 0.361824 -50.140723 34.666960
4809 1 -0.930450 -47.912246 34.666960
4810 1 0.350486 -45.683770 34.666960
4811 1 -0.941774 -43.455293 34.666960
4812 1 0.339263 -41.226817 34.666960
4813 1 -0.952785 -38.998340 34.666960
4814 1 0.328606 -36.769863 34.666960
4815 1 -0.962911 -34.541387 34.666960
4816 1 0.319237 -32.312910 34.666960
4817 1 -0.971234 -30.084434 34.666960
4818 1 0.312330 -27.855957 34.666960
4819 1 -0.976249 -25.627481 34.666960
4820 1 0.309829 -23.399004 34.666960
4821 1 -0.975420 -21.170527 34.666960
4822 1 0.315073 -18.942051 34.666960
4823 1 -0.964303 -16.713574 34.666960
4824 1 0.334032 -14.485098 34.666960
4825 1 -0.934836 -12.256621 34.666960
4826 1 0.377557 -10.028145 34.666960
4827 1 -0.872750 -7.799668 34.666960
4828 1 0.463227 -5.571191 34.666960
4829 1 -0.759644 -3.342715 34.666960
4830 1 0.602882 -1.114238 34.666960
4831 1 -0.602882 1.114238 34.666960
4832 1 0.759644 3.342715 34.666960
4833 1 -0.463227 5.571191 34.666960
4834 1 0.872750 7.799668 34.666960
4835 1 -0.377557 10.028145 34.666960
4836 1 0.934836 12.256621 34.666960
4837 1 -0.334032 14.485098 34.666960
4838 1 0.964303 16.713574 34.666960
4839 1 -0.315073 18.942051 34.666960
4840 1 0.975420 21.170527 34.666960
4841 1 -0.309829 23.399004 34.666960
4842 1 0.976249 25.627481 34.666960
4843 1 -0.312330 27.855957 34.666960
4844 1 0.971234 30.084434 34.666960
4845 1 -0.319237 32.312910 34.666960
4846 1 0.962911 34.541387 34.666960
4847 1 -0.328606 36.769863 34.666960
4848 1 0.952785 38.998340 34.666960
4849 1 -0.339263 41.226817 34.666960
4850 1 0.941774 43.455293 34.666960
4851 1 -0.350486 45.683770 34.666960
4852 1 0.930450 47.912246 34.666960
4853 1 -0.361824 50.140723 34.666960
4854 1 0.919169 52.369199 34.666960
4855 1 -0.372995 54.597676 34.666960
4856 1 0.908150 56.826153 34.666960
4857 1 -0.383829 59.054629 34.666960
4858 1 0.897525 61.283106 34.666960
4859 1 -0.394227 63.511582 34.666960
4860 1 0.887367 65.740059 34.666960
4861 1 1.685856 -65.740059 34.666960
4862 1 -2.178996 -63.511582 34.666960
4863 1 1.675698 -61.283106 34.666960
4864 1 -2.189394 -59.054629 34.666960
4865 1 1.665073 -56.826153 34.666960
4866 1 -2.200228 -54.597676 34.666960
4867 1 1.654054 -52.369199 34.666960
4868 1 -2.211399 -50.140723 34.666960
4869 1 1.642773 -47.912246 34.666960
4870 1 -2.222737 -45.683770 34.666960
4871 1 1.631449 -43.455293 34.666960
4872 1 -2.233960 -41.226817 34.666960
4873 1 1.620438 -38.998340 34.666960
4874 1 -2.244617 -36.769863 34.666960
4875 1 1.610312 -34.541387 34.666960
4876 1 -2.253986 -32.312910 34.666960
4877 1 1.601990 -30.084434 34.666960
4878 1 -2.260893 -27.855957 34.666960
4879 1 1.596975 -25.627481 34.666960
4880 1 -2.263394 -23.399004 34.666960
4881 1 1.597803 -21.170527 34.666960
4882 1 -2.258150 -18.942051 34.666960
4883 1 1.608920 -16.713574 34.666960
4884 1 -2.239191 -14.485098 34.666960
4885 1 1.638387 -12.256621 34.666960
4886 1 -2.195666 -10.028145 34.666960
4887 1 1.700473 -7.799668 34.666960
4888 1 -2.109996 -5.571191 34.666960
4889 1 1.813579 -3.342715 34.666960
4890 1 -1.970341 -1.114238 34.666960
4891 1 1.970341 1.114238 34.666960
4892 1 -1.813579 3.342715 34.666960
4893 1 2.109996 5.571191 34.666960
4894 1 -1.700473 7.799668 34.666960
4895 1 2.195666 10.028145 34.666960
4896 1 -1.638387 12.256621 34.666960
4897 1 2.239191 14.485098 34.666960
4898 1 -1.608920 16.713574 34.666960
4899 1 2.258150 18.942051 34.666960
4900 1 -1.597803 21.170527 34.666960
4901 1 2.263394 23.399004 34.666960
4902 1 -1.596975 25.627481 34.666960
4903 1 2.260893 27.855957 34.666960
4904 1 -1.601990 30.084434 34.666960
4905 1 2.253986 32.312910 34.666960
4906 1 -1.610312 34.541387 34.666960
4907 1 2.244617 36.769863 34.666960
4908 1 -1.620438 38.998340 34.666960
4909 1 2.233960 41.226817 34.666960
4910 1 -1.631449 43.455293 34.666960
4911 1 2.222737 45.683770 34.666960
4912 1 -1.642773 47.912246 34.666960
4913 1 2.211399 50.140723 34.666960
4914 1 -1.654054 52.369199 34.666960
4915 1 2.200228 54.597676 34.666960
4916 1 -1.665073 56.826153 34.666960
4917 1 2.189394 59.054629 34.666960
4918 1 -1.675698 61.283106 34.666960
4919 1 2.178996 63.511582 34.666960
4920 1 -1.685856 65.740059 34.666960
4921 1 0.403440 -64.997233 36.767988
4922 1 1.685414 -62.768757 36.767988
4923 1 0.394082 -60.540280 36.767988
4924 1 1.675899 -58.311804 36.767988
4925 1 0.384433 -56.083327 36.767988
4926 1 1.666146 -53.854850 36.767988
4927 1 0.374613 -51.626374 36.767988
4928 1 1.656305 -49.397897 36.767988
4929 1 0.364811 -47.169421 36.767988
4930 1 1.646615 -44.940944 36.767988
4931 1 0.355323 -42.712468 36.767988
4932 1 1.637444 -40.483991 36.767988
4933 1 0.346609 -38.255514 36.767988
4934 1 1.629362 -36.027038 36.767988
4935 1 0.339376 -33.798561 36.767988
4936 1 1.623250 -31.570085 36.767988
4937 1 0.334727 -29.341608 36.767988
4938 1 1.620492 -27.113132 36.767988
4939 1 0.334403 -24.884655 36.767988
4940 1 1.623296 -22.656178 36.767988
4941 1 0.341221 -20.427702 36.767988
4942 1 1.635265 -18.199225 36.767988
4943 1 0.359801 -15.970749 36.767988
4944 1 1.662312 -13.742272 36.767988
4945 1 0.397617 -11.513796 36.767988
4946 1 1.713604 -9.285319 36.767988
4947 1 0.465209 -7.056842 36.767988
4948 1 1.799666 -4.828366 36.767988
4949 1 0.569842 -2.599889 36.767988
4950 1 1.919213 -0.371413 36.767988
4951 1 0.696296 1.857064 36.767988
4952 1 2.042138 4.085540 36.767988
4953 1 0.806530 6.314017 36.767988
4954 1 2.134533 8.542494 36.767988
4955 1 0.880104 10.770970 36.767988
4956 1 2.190955 12.999447 36.767988
4957 1 0.922097 15.227923 36.767988
4958 1 2.221313 17.456400 36.767988
4959 1 0.943271 19.684876 36.767988
4960 1 2.235306 21.913353 36.767988
4961 1 0.951666 24.141830 36.767988
4962 1 2.239338 26.370306 36.767988
4963 1 0.952299 28.598783 36.767988
4964 1 2.237324 30.827259 36.767988
4965 1 0.948227 33.055736 36.767988
4966 1 2.231658 35.284212 36.767988
4967 1 0.941334 37.512689 36.767988
4968 1 2.223832 39.741165 36.767988
4969 1 0.932810 41.969642 36.767988
4970 1 2.214797 44.198119 36.767988
4971 1 0.923414 46.426595 36.767988
4972 1 2.205163 48.655072 36.767988
4973 1 0.913640 50.883548 36.767988
4974 1 2.195328 53.112025 36.767988
4975 1 0.903807 55.340501 36.767988
4976 1 2.185547 57.568978 36.767988
4977 1 0.894120 59.797455 36.767988
4978 1 2.175985 62.025931 36.767988
4979 1 0.884708 64.254408 36.767988
4980 1 2.166742 66.482884 36.767988
4981 1 -2.169783 -64.997233 36.767988
4982 1 -0.887809 -62.768757 36.767988
4983 1 -2.179141 -60.540280 36.767988
4984 1 -0.897324 -58.311804 36.767988
4985 1 -2.188790 -56.083327 36.767988
4986 1 -0.907077 -53.854850 36.767988
4987 1 -2.198610 -51.626374 36.767988
4988 1 -0.916918 -49.397897 36.767988
4989 1 -2.208413 -47.169421 36.767988
4990 1 -0.926608 -44.940944 36.767988
4991 1 -2.217900 -42.712468 36.767988
4992 1 -0.935779 -40.483991 36.767988
4993 1 -2.226614 -38.255514 36.767988
4994 1 -0.943861 -36.027038 36.767988
4995 1 -2.233847 -33.798561 36.767988
4996 1 -0.949973 -31.570085 36.767988
4997 1 -2.238496 -29.341608 36.767988
4998 1 -0.952731 -27.113132 36.767988
4999 1 -2.238820 -24.884655 36.767988
5000 1 -0.949928 -22.656178 36.767988
5001 1 -2.232002 -20.427702 36.767988
5002 1 -0.937958 -18.199225 36.767988
5003 1 -2.213422 -15.970749 36.767988
5004 1 -0.910912 -13.742272 36.767988
5005 1 -2.175606 -11.513796 36.767988
5006 1 -0.859619 -9.285319 36.767988
5007 1 -2.108014 -7.056842 36.767988
5008 1 -0.773557 -4.828366 36.767988
5009 1 -2.003381 -2.599889 36.767988
5010 1 -0.654010 -0.371413 36.767988
5011 1 -1.876927 1.857064 36.767988
5012 1 -0.531085 4.085540 36.767988
5013 1 -1.766693 6.314017 36.767988
5014 1 -0.438690 8.542494 36.767988
5015 1 -1.693119 10.770970 36.767988
5016 1 -0.382268 12.999447 36.767988
5017 1 -1.651126 15.227923 36.767988
5018 1 -0.351910 17.456400 36.767988
5019 1 -1.629952 19.684876 36.767988
5020 1 -0.337917 21.913353 36.767988
5021 1 -1.621558 24.141830 36.767988
5022 1 -0.333885 26.370306 36.767988
5023 1 -1.620924 28.598783 36.767988
5024 1 -0.335899 30.827259 36.767988
5025 1 -1.624996 33.055736 36.767988
5026 1 -0.341565 35.284212 36.767988
5027 1 -1.631889 37.512689 36.767988
5028 1 -0.349391 39.741165 36.767988
5029 1 -1.640413 41.969642 36.767988
5030 1 -0.358426 44.198119 36.767988
5031 1 -1.649809 46.426595 36.767988
5032 1 -0.368060 48.655072 36.767988
5033 1 -1.659583 50.883548 36.767988
5034 1 -0.377895 53.112025 36.767988
5035 1 -1.669416 55.340501 36.767988
5036 1 -0.387676 57.568978 36.767988
5037 1 -1.679103 59.797455 36.767988
5038 1 -0.397238 62.025931 36.767988
5039 1 -1.688515 64.254408 36.767988
5040 1 -0.406481 66.482884 36.767988
5041 1 -2.161066 -66.482884 38.869015
5042 1 -0.878638 -64.254408 38.869015
5043 1 -2.169489 -62.025931 38.869015
5044 1 -0.887161 -59.797455 38.869015
5045 1 -2.178084 -57.568978 38.869015
5046 1 -0.895796 -55.340501 38.869015
5047 1 -2.186720 -53.112025 38.869015
5048 1 -0.904382 -50.883548 38.869015
5049 1 -2.195196 -48.655072 38.869015
5050 1 -0.912674 -46.426595 38.869015
5051 1 -2.203213 -44.198119 38.869015
5052 1 -0.920305 -41.969642 38.869015
5053 1 -2.210323 -39.741165 38.869015
5054 1 -0.926727 -37.512689 38.869015
5055 1 -2.215855 -35.284212 38.869015
5056 1 -0.931121 -33.055736 38.869015
5057 1 -2.218803 -30.827259 38.869015
5058 1 -0.932247 -28.598783 38.869015
5059 1 -2.217642 -26.370306 38.869015
5060 1 -0.928223 -24.141830 38.869015
5061 1 -2.210038 -21.913353 38.869015
5062 1 -0.916155 -19.684876 38.869015
5063 1 -2.192419 -17.456400 38.869015
5064 1 -0.891666 -15.227923 38.869015
5065 1 -2.159508 -12.999447 38.869015
5066 1 -0.848602 -10.770970 38.869015
5067 1 -2.104564 -8.542494 38.869015
5068 1 -0.780442 -6.314017 38.869015
5069 1 -2.022890 -4.085540 38.869015
5070 1 -0.686791 -1.857064 38.869015
5071 1 -1.921156 0.371413 38.869015
5072 1 -0.582868 2.599889 38.869015
5073 1 -1.821540 4.828366 38.869015
5074 1 -0.492897 7.056842 38.869015
5075 1 -1.744306 9.285319 38.869015
5076 1 -0.429243 11.513796 38.869015
5077 1 -1.693501 13.742272 38.869015
5078 1 -0.389761 15.970749 38.869015
5079 1 -1.663583 18.199225 38.869015
5080 1 -0.367723 20.427702 38.869015
5081 1 -1.647949 22.656178 38.869015
5082 1 -0.357253 24.884655 38.869015
5083 1 -1.641627 27.113132 38.869015
5084 1 -0.354255 29.341608 38.869015
5085 1 -1.641287 31.570085 38.869015
5086 1 -0.356036 33.798561 38.869015
5087 1 -1.644755 36.027038 38.869015
5088 1 -0.360840 38.255514 38.869015
5089 1 -1.650609 40.483991 38.869015
5090 1 -0.367512 42.712468 38.869015
5091 1 -1.657909 44.940944 38.869015
5092 1 -0.375285 47.169421 38.869015
5093 1 -1.666029 49.397897 38.869015
5094 1 -0.383648 51.626374 38.869015
5095 1 -1.674550 53.854850 38.869015
5096 1 -0.392257 56.083327 38.869015
5097 1 -1.683190 58.311804 38.869015
5098 1 -0.400883 60.540280 38.869015
5099 1 -1.691764 62.768757 38.869015
5100 1 -0.409374 64.997233 38.869015
5101 1 0.412157 -66.482884 38.869015
5102 1 1.694585 -64.254408 38.869015
5103 1 0.403734 -62.025931 38.869015
5104 1 1.686062 -59.797455 38.869015
5105 1 0.395139 -57.568978 38.869015
5106 1 1.677427 -55.340501 38.869015
5107 1 0.386503 -53.112025 38.869015
5108 1 1.668841 -50.883548 38.869015
5109 1 0.378027 -48.655072 38.869015
5110 1 1.660549 -46.426595 38.869015
5111 1 0.370010 -44.198119 38.869015
5112 1 1.652918 -41.969642 38.869015
5113 1 0.362901 -39.741165 38.869015
5114 1 1.646496 -37.512689 38.869015
5115 1 0.357369 -35.284212 38.869015
5116 1 1.642103 -33.055736 38.869015
5117 1 0.354420 -30.827259 38.869015
5118 1 1.640976 -28.598783 38.869015
5119 1 0.355581 -26.370306 38.869015
5120 1 1.645001 -24.141830 38.869015
5121 1 0.363185 -21.913353 38.869015
5122 1 1.657068 -19.684876 38.869015
5123 1 0.380804 -17.456400 38.869015
5124 1 1.681557 -15.227923 38.869015
5125 1 0.413715 -12.999447 38.869015
5126 1 1.724621 -10.770970 38.869015
5127 1 0.468659 -8.542494 38.869015
5128 1 1.792781 -6.314017 38.869015
5129 1 0.550333 -4.085540 38.869015
5130 1 1.886432 -1.857064 38.869015
5131 1 0.652067 0.371413 38.869015
5132 1 1.990355 2.599889 38.869015
5133 1 0.751683 4.828366 38.869015
5134 1 2.080326 7.056842 38.869015
5135 1 0.828917 9.285319 38.869015
5136 1 2.143981 11.513796 38.869015
5137 1 0.879722 13.742272 38.869015
5138 1 2.183462 15.970749 38.869015
5139 1 0.909640 18.199225 38.869015
5140 1 2.205500 20.427702 38.869015
5141 1 0.925274 22.656178 38.869015
5142 1 2.215970 24.884655 38.869015
5143 1 0.931596 27.113132 38.869015
5144 1 2.218968 29.341608 38.869015
5145 1 0.931936 31.570085 38.869015
5146 1 2.217187 33.798561 38.869015
5147 1 0.928468 36.027038 38.869015
5148 1 2.212383 38.255514 38.869015
5149 1 0.922614 40.483991 38.869015
5150 1 2.205711 42.712468 38.869015
5151 1 0.915314 44.940944 38.869015
5152 1 2.197938 47.169421 38.869015
5153 1 0.907194 49.397897 38.869015
5154 1 2.189575 51.626374 38.869015
5155 1 0.898673 53.854850 38.869015
5156 1 2.180966 56.083327 38.869015
5157 1 0.890033 58.311804 38.869015
5158 1 2.172341 60.540280 38.869015
5159 1 0.881459 62.768757 38.869015
5160 1 2.163849 64.997233 38.869015
5161 1 -0.869984 -65.740059 40.970043
5162 1 0.412819 -63.511582 40.970043
5163 1 -0.877620 -61.283106 40.970043
5164 1 0.405160 -59.054629 40.970043
5165 1 -0.885268 -56.826153 40.970043
5166 1 0.397564 -54.597676 40.970043
5167 1 -0.892762 -52.369199 40.970043
5168 1 0.390232 -50.140723 40.970043
5169 1 -0.899858 -47.912246 40.970043
5170 1 0.383461 -45.683770 40.970043
5171 1 -0.906200 -43.455293 40.970043
5172 1 0.377676 -41.226817 40.970043
5173 1 -0.911274 -38.998340 40.970043
5174 1 0.373499 -36.769863 40.970043
5175 1 -0.914331 -34.541387 40.970043
5176 1 0.371832 -32.312910 40.970043
5177 1 -0.914282 -30.084434 40.970043
5178 1 0.373991 -27.855957 40.970043
5179 1 -0.909534 -25.627481 40.970043
5180 1 0.381902 -23.399004 40.970043
5181 1 -0.897771 -21.170527 40.970043
5182 1 0.398338 -18.942051 40.970043
5183 1 -0.875704 -16.713574 40.970043
5184 1 0.427119 -14.485098 40.970043
5185 1 -0.839045 -12.256621 40.970043
5186 1 0.472784 -10.028145 40.970043
5187 1 -0.783496 -7.799668 40.970043
5188 1 0.538522 -5.571191 40.970043
5189 1 -0.708246 -3.342715 40.970043
5190 1 0.621289 -1.114238 40.970043
5191 1 -0.621289 1.114238 40.970043
5192 1 0.708246 3.342715 40.970043
5193 1 -0.538522 5.571191 40.970043
5194 1 0.783496 7.799668 40.970043
5195 1 -0.472784 10.028145 40.970043
5196 1 0.839045 12.256621 40.970043
5197 1 -0.427119 14.485098 40.970043
5198 1 0.875704 16.713574 40.970043
5199 1 -0.398338 18.942051 40.970043
5200 1 0.897771 21.170527 40.970043
5201 1 -0.381902 23.399004 40.970043
5202 1 0.909534 25.627481 40.970043
5203 1 -0.373991 27.855957 40.970043
5204 1 0.914282 30.084434 40.970043
5205 1 -0.371832 32.312910 40.970043
5206 1 0.914331 34.541387 40.970043
5207 1 -0.373499 36.769863 40.970043
5208 1 0.911274 38.998340 40.970043
5209 1 -0.377676 41.226817 40.970043
5210 1 0.906200 43.455293 40.970043
5211 1 -0.383461 45.683770 40.970043
5212 1 0.899858 47.912246 40.970043
5213 1 -0.390232 50.140723 40.970043
5214 1 0.892762 52.369199 40.970043
5215 1 -0.397564 54.597676 40.970043
5216 1 0.885268 56.826153 40.970043
5217 1 -0.405160 59.054629 40.970043
5218 1 0.877620 61.283106 40.970043
5219 1 -0.412819 63.511582 40.970043
5220 1 0.869984 65.740059 40.970043
5221 1 1.703239 -65.740059 40.970043
5222 1 -2.160404 -63.511582 40.970043
5223 1 1.695603 -61.283106 40.970043
5224 1 -2.168063 -59.054629 40.970043
5225 1 1.687955 -56.826153 40.970043
5226 1 -2.175659 -54.597676 40.970043
5227 1 1.680461 -52.369199 40.970043
5228 1 -2.182991 -50.140723 40.970043
5229 1 1.673365 -47.912246 40.970043
5230 1 -2.189762 -45.683770 40.970043
5231 1 1.667023 -43.455293 40.970043
5232 1 -2.195547 -41.226817 40.970043
5233 1 1.661950 -38.998340 40.970043
5234 1 -2.199724 -36.769863 40.970043
5235 1 1.658892 -34.541387 40.970043
5236 1 -2.201391 -32.312910 40.970043
5237 1 1.658941 -30.084434 40.970043
5238 1 -2.199232 -27.855957 40.970043
5239 1 1.663689 -25.627481 40.970043
5240 1 -2.191322 -23.399004 40.970043
5241 1 1.675452 -21.170527 40.970043
5242 1 -2.174885 -18.942051 40.970043
5243 1 1.697519 -16.713574 40.970043
5244 1 -2.146104 -14.485098 40.970043
5245 1 1.734178 -12.256621 40.970043
5246 1 -2.100439 -10.028145 40.970043
5247 1 1.789728 -7.799668 40.970043
5248 1 -2.034701 -5.571191 40.970043
5249 1 1.864977 -3.342715 40.970043
5250 1 -1.951934 -1.114238 40.970043
5251 1 1.951934 1.114238 40.970043
5252 1 -1.864977 3.342715 40.970043
5253 1 2.034701 5.571191 40.970043
5254 1 -1.789728 7.799668 40.970043
5255 1 2.100439 10.028145 40.970043
5256 1 -1.734178 12.256621 40.970043
5257 1 2.146104 14.485098 40.970043
5258 1 -1.697519 16.713574 40.970043
5259 1 2.174885 18.942051 40.970043
5260 1 -1.675452 21.170527 40.970043
5261 1 2.191322 23.399004 40.970043
5262 1 -1.663689 25.627481 40.970043
5263 1 2.199232 27.855957 40.970043
5264 1 -1.658941 30.084434 40.970043
5265 1 2.201391 32.312910 40.970043
5266 1 -1.658892 34.541387 40.970043
5267 1 2.199724 36.769863 40.970043
5268 1 -1.661950 38.998340 40.970043
5269 1 2.195547 41.226817 40.970043
5270 1 -1.667023 43.455293 40.970043
5271 1 2.189762 45.683770 40.970043
5272 1 -1.673365 47.912246 40.970043
5273 1 2.182991 50.140723 40.970043
5274 1 -1.680461 52.369199 40.970043
5275 1 2.175659 54.597676 40.970043
5276 1 -1.687955 56.826153 40.970043
5277 1 2.168063 59.054629 40.970043
5278 1 -1.695603 61.283106 40.970043
5279 1 2.160404 63.511582 40.970043
5280 1 -1.703239 65.740059 40.970043
5281 1 0.421373 -64.997233 43.071071
5282 1 1.704563 -62.768757 43.071071
5283 1 0.414545 -60.540280 43.071071
5284 1 1.697785 -58.311804 43.071071
5285 1 0.407859 -56.083327 43.071071
5286 1 1.691241 -53.854850 43.071071
5287 1 0.401517 -51.626374 43.071071
5288 1 1.685170 -49.397897 43.071071
5289 1 0.395800 -47.169421 43.071071
5290 1 1.679908 -44.940944 43.071071
5291 1 0.391110 -42.712468 43.071071
5292 1 1.675931 -40.483991 43.071071
5293 1 0.388014 -38.255514 43.071071
5294 1 1.673913 -36.027038 43.071071
5295 1 0.387311 -33.798561 43.071071
5296 1 1.674805 -31.570085 43.071071
5297 1 0.390130 -29.341608 43.071071
5298 1 1.679945 -27.113132 43.071071
5299 1 0.398055 -24.884655 43.071071
5300 1 1.691198 -22.656178 43.071071
5301 1 0.413262 -20.427702 43.071071
5302 1 1.711071 -18.199225 43.071071
5303 1 0.438581 -15.970749 43.071071
5304 1 1.742649 -13.742272 43.071071
5305 1 0.477194 -11.513796 43.071071
5306 1 1.788907 -9.285319 43.071071
5307 1 0.531364 -7.056842 43.071071
5308 1 1.850688 -4.828366 43.071071
5309 1 0.599686 -2.599889 43.071071
5310 1 1.923629 -0.371413 43.071071
5311 1 0.674605 1.857064 43.071071
5312 1 1.997548 4.085540 43.071071
5313 1 0.744721 6.314017 43.071071
5314 1 2.061671 8.542494 43.071071
5315 1 0.801495 10.770970 43.071071
5316 1 2.110560 12.999447 43.071071
5317 1 0.842602 15.227923 43.071071
5318 1 2.144402 17.456400 43.071071
5319 1 0.869917 19.684876 43.071071
5320 1 2.166001 21.913353 43.071071
5321 1 0.886596 24.141830 43.071071
5322 1 2.178498 26.370306 43.071071
5323 1 0.895566 28.598783 43.071071
5324 1 2.184511 30.827259 43.071071
5325 1 0.899112 33.055736 43.071071
5326 1 2.186006 35.284212 43.071071
5327 1 0.898907 37.512689 43.071071
5328 1 2.184398 39.741165 43.071071
5329 1 0.896146 41.969642 43.071071
5330 1 2.180695 44.198119 43.071071
5331 1 0.891677 46.426595 43.071071
5332 1 2.175609 48.655072 43.071071
5333 1 0.886100 50.883548 43.071071
5334 1 2.169646 53.112025 43.071071
5335 1 0.879840 55.340501 43.071071
5336 1 2.163162 57.568978 43.071071
5337 1 0.873195 59.797455 43.071071
5338 1 2.156410 62.025931 43.071071
5339 1 0.866380 64.254408 43.071071
5340 1 2.149567 66.482884 43.071071
5341 1 -2.151850 -64.997233 43.071071
5342 1 -0.868660 -62.768757 43.071071
5343 1 -2.158678 -60.540280 43.071071
5344 1 -0.875438 -58.311804 43.071071
5345 1 -2.165364 -56.083327 43.071071
5346 1 -0.881982 -53.854850 43.071071
5347 1 -2.171706 -51.626374 43.071071
5348 1 -0.888053 -49.397897 43.071071
5349 1 -2.177423 -47.169421 43.071071
5350 1 -0.893316 -44.940944 43.071071
5351 1 -2.182113 -42.712468 43.071071
5352 1 -0.897292 -40.483991 43.071071
5353 1 -2.185209 -38.255514 43.071071
5354 1 -0.899310 -36.027038 43.071071
5355 1 -2.185913 -33.798561 43.071071
5356 1 -0.898418 -31.570085 43.071071
5357 1 -2.183093 -29.341608 43.071071
5358 1 -0.893278 -27.113132 43.071071
5359 1 -2.175168 -24.884655 43.071071
5360 1 -0.882025 -22.656178 43.071071
5361 1 -2.159961 -20.427702 43.071071
5362 1 -0.862153 -18.199225 43.071071
5363 1 -2.134642 -15.970749 43.071071
5364 1 -0.830574 -13.742272 43.071071
5365 1 -2.096029 -11.513796 43.071071
5366 1 -0.784316 -9.285319 43.071071
5367 1 -2.041860 -7.056842 43.071071
5368 1 -0.722535 -4.828366 43.071071
5369 1 -1.973537 -2.599889 43.071071
5370 1 -0.649594 -0.371413 43.071071
5371 1 -1.898618 1.857064 43.071071
5372 1 -0.575675 4.085540 43.071071
5373 1 -1.828502 6.314017 43.071071
5374 1 -0.511552 8.542494 43.071071
5375 1 -1.771728 10.770970 43.071071
5376 1 -0.462663 12.999447 43.071071
5377 1 -1.730621 15.227923 43.071071
5378 1 -0.428821 17.456400 43.071071
5379 1 -1.703307 19.684876 43.071071
5380 1 -0.407222 21.913353 43.071071
5381 1 -1.686627 24.141830 43.071071
5382 1 -0.394725 26.370306 43.071071
5383 1 -1.677657 28.598783 43.071071
5384 1 -0.388712 30.827259 43.071071
5385 1 -1.674111 33.055736 43.071071
5386 1 -0.387217 35.284212 43.071071
5387 1 -1.674316 37.512689 43.071071
5388 1 -0.388825 39.741165 43.071071
5389 1 -1.677077 41.969642 43.071071
5390 1 -0.392529 44.198119 43.071071
5391 1 -1.681546 46.426595 43.071071
5392 1 -0.397614 48.655072 43.071071
5393 1 -1.687123 50.883548 43.071071
5394 1 -0.403577 53.112025 43.071071
5395 1 -1.693384 55.340501 43.071071
5396 1 -0.410061 57.568978 43.071071
5397 1 -1.700028 59.797455 43.071071
5398 1 -0.416813 62.025931 43.071071
5399 1 -1.706843 64.254408 43.071071
5400 1 -0.423656 66.482884 43.071071
5401 1 -2.143794 -66.482884 45.172099
5402 1 -0.860244 -64.254408 45.172099
5403 1 -2.149885 -62.025931 45.172099
5404 1 -0.866253 -59.797455 45.172099
5405 1 -2.155772 -57.568978 45.172099
5406 1 -0.871969 -55.340501 45.172099
5407 1 -2.161260 -53.112025 45.172099
5408 1 -0.877163 -50.883548 45.172099
5409 1 -2.166081 -48.655072 45.172099
5410 1 -0.881520 -46.426595 45.172099
5411 1 -2.169865 -44.198119 45.172099
5412 1 -0.884603 -41.969642 45.172099
5413 1 -2.172099 -39.741165 45.172099
5414 1 -0.885812 -37.512689 45.172099
5415 1 -2.172078 -35.284212 45.172099
5416 1 -0.884321 -33.055736 45.172099
5417 1 -2.168837 -30.827259 45.172099
5418 1 -0.879005 -28.598783 45.172099
5419 1 -2.161070 -26.370306 45.172099
5420 1 -0.868356 -24.141830 45.172099
5421 1 -2.147053 -21.913353 45.172099
5422 1 -0.850434 -19.684876 45.172099
5423 1 -2.124647 -17.456400 45.172099
5424 1 -0.822954 -15.227923 45.172099
5425 1 -2.091540 -12.999447 45.172099
5426 1 -0.783777 -10.770970 45.172099
5427 1 -2.046071 -8.542494 45.172099
5428 1 -0.732139 -6.314017 45.172099
5429 1 -1.988858 -4.085540 45.172099
5430 1 -0.670497 -1.857064 45.172099
5431 1 -1.924459 0.371413 45.172099
5432 1 -0.605380 2.599889 45.172099
5433 1 -1.860765 4.828366 45.172099
5434 1 -0.545053 7.056842 45.172099
5435 1 -1.805311 9.285319 45.172099
5436 1 -0.495431 11.513796 45.172099
5437 1 -1.761946 13.742272 45.172099
5438 1 -0.458315 15.970749 45.172099
5439 1 -1.730771 18.199225 45.172099
5440 1 -0.432591 20.427702 45.172099
5441 1 -1.709925 22.656178 45.172099
5442 1 -0.416033 24.884655 45.172099
5443 1 -1.697088 27.113132 45.172099
5444 1 -0.406396 29.341608 45.172099
5445 1 -1.690183 31.570085 45.172099
5446 1 -0.401811 33.798561 45.172099
5447 1 -1.687559 36.027038 45.172099
5448 1 -0.400839 38.255514 45.172099
5449 1 -1.687973 40.483991 45.172099
5450 1 -0.402411 42.712468 45.172099
5451 1 -1.690508 44.940944 45.172099
5452 1 -0.405743 47.169421 45.172099
5453 1 -1.694496 49.397897 45.172099
5454 1 -0.410266 51.626374 45.172099
5455 1 -1.699452 53.854850 45.172099
5456 1 -0.415566 56.083327 45.172099
5457 1 -1.705022 58.311804 45.172099
5458 1 -0.421345 60.540280 45.172099
5459 1 -1.710955 62.768757 45.172099
5460 1 -0.427386 64.997233 45.172099
5461 1 0.429429 -66.482884 45.172099
5462 1 1.712979 -64.254408 45.172099
5463 1 0.423338 -62.025931 45.172099
5464 1 1.706970 -59.797455 45.172099
5465 1 0.417452 -57.568978 45.172099
5466 1 1.701254 -55.340501 45.172099
5467 1 0.411963 -53.112025 45.172099
5468 1 1.696060 -50.883548 45.172099
5469 1 0.407142 -48.655072 45.172099
5470 1 1.691703 -46.426595 45.172099
5471 1 0.403358 -44.198119 45.172099
5472 1 1.688620 -41.969642 45.172099
5473 1 0.401124 -39.741165 45.172099
5474 1 1.687411 -37.512689 45.172099
5475 1 0.401145 -35.284212 45.172099
5476 1 1.688902 -33.055736 45.172099
5477 1 0.404386 -30.827259 45.172099
5478 1 1.694218 -28.598783 45.172099
5479 1 0.412153 -26.370306 45.172099
5480 1 1.704867 -24.141830 45.172099
5481 1 0.426170 -21.913353 45.172099
5482 1 1.722790 -19.684876 45.172099
5483 1 0.448576 -17.456400 45.172099
5484 1 1.750270 -15.227923 45.172099
5485 1 0.481683 -12.999447 45.172099
5486 1 1.789446 -10.770970 45.172099
5487 1 0.527152 -8.542494 45.172099
5488 1 1.841084 -6.314017 45.172099
5489 1 0.584365 -4.085540 45.172099
5490 1 1.902726 -1.857064 45.172099
5491 1 0.648765 0.371413 45.172099
5492 1 1.967843 2.599889 45.172099
5493 1 0.712458 4.828366 45.172099
5494 1 2.028170 7.056842 45.172099
5495 1 0.767912 9.285319 45.172099
5496 1 2.077793 11.513796 45.172099
5497 1 0.811277 13.742272 45.172099
5498 1 2.114908 15.970749 45.172099
5499 1 0.842452 18.199225 45.172099
5500 1 2.140632 20.427702 45.172099
5501 1 0.863298 22.656178 45.172099
5502 1 2.157190 24.884655 45.172099
5503 1 0.876135 27.113132 45.172099
5504 1 2.166827 29.341608 45.172099
5505 1 0.883040 31.570085 45.172099
5506 1 2.171412 33.798561 45.172099
5507 1 0.885664 36.027038 45.172099
5508 1 2.172384 38.255514 45.172099
5509 1 0.885250 40.483991 45.172099
5510 1 2.170812 42.712468 45.172099
5511 1 0.882715 44.940944 45.172099
5512 1 2.167480 47.169421 45.172099
5513 1 0.878727 49.397897 45.172099
5514 1 2.162957 51.626374 45.172099
5515 1 0.873771 53.854850 45.172099
5516 1 2.157657 56.083327 45.172099
5517 1 0.868201 58.311804 45.172099
5518 1 2.151878 60.540280 45.172099
5519 1 0.862268 62.768757 45.172099
5520 1 2.145837 64.997233 45.172099
5521 1 -0.852332 -65.740059 47.273127
5522 1 0.431583 -63.511582 47.273127
5523 1 -0.857663 -61.283106 47.273127
5524 1 0.426397 -59.054629 47.273127
5525 1 -0.862657 -56.826153 47.273127
5526 1 0.421648 -54.597676 47.273127
5527 1 -0.867099 -52.369199 47.273127
5528 1 0.417587 -50.140723 47.273127
5529 1 -0.870695 -47.912246 47.273127
5530 1 0.414554 -45.683770 47.273127
5531 1 -0.873050 -43.455293 47.273127
5532 1 0.413010 -41.226817 47.273127
5533 1 -0.873629 -38.998340 47.273127
5534 1 0.413573 -36.769863 47.273127
5535 1 -0.871718 -34.541387 47.273127
5536 1 0.417068 -32.312910 47.273127
5537 1 -0.866369 -30.084434 47.273127
5538 1 0.424578 -27.855957 47.273127
5539 1 -0.856355 -25.627481 47.273127
5540 1 0.437480 -23.399004 47.273127
5541 1 -0.840150 -21.170527 47.273127
5542 1 0.457425 -18.942051 47.273127
5543 1 -0.816025 -16.713574 47.273127
5544 1 0.486139 -14.485098 47.273127
5545 1 -0.782392 -12.256621 47.273127
5546 1 0.524878 -10.028145 47.273127
5547 1 -0.738584 -7.799668 47.273127
5548 1 0.573415 -5.571191 47.273127
5549 1 -0.686019 -3.342715 47.273127
5550 1 0.628933 -1.114238 47.273127
5551 1 -0.628933 1.114238 47.273127
5552 1 0.686019 3.342715 47.273127
5553 1 -0.573415 5.571191 47.273127
5554 1 0.738584 7.799668 47.273127
5555 1 -0.524878 10.028145 47.273127
5556 1 0.782392 12.256621 47.273127
5557 1 -0.486139 14.485098 47.273127
5558 1 0.816025 16.713574 47.273127
5559 1 -0.457425 18.942051 47.273127
5560 1 0.840150 21.170527 47.273127
5561 1 -0.437480 23.399004 47.273127
5562 1 0.856355 25.627481 47.273127
5563 1 -0.424578 27.855957 47.273127
5564 1 0.866369 30.084434 47.273127
5565 1 -0.417068 32.312910 47.273127
5566 1 0.871718 34.541387 47.273127
5567 1 -0.413573 36.769863 47.273127
5568 1 0.873629 38.998340 47.273127
5569 1 -0.413010 41.226817 47.273127
5570 1 0.873050 43.455293 47.273127
5571 1 -0.414554 45.683770 47.273127
5572 1 0.870695 47.912246 47.273127
5573 1 -0.417587 50.140723 47.273127
5574 1 0.867099 52.369199 47.273127
5575 1 -0.421648 54.597676 47.273127
5576 1 0.862657 56.826153 47.273127
5577 1 -0.426397 59.054629 47.273127
5578 1 0.857663 61.283106 47.273127
5579 1 -0.431583 63.511582 47.273127
5580 1 0.852332 65.740059 47.273127
5581 1 1.720891 -65.740059 47.273127
5582 1 -2.141640 -63.511582 47.273127
5583 1 1.715560 -61.283106 47.273127
5584 1 -2.146826 -59.054629 47.273127
5585 1 1.710566 -56.826153 47.273127
5586 1 -2.151575 -54.597676 47.273127
5587 1 1.706124 -52.369199 47.273127
5588 1 -2.155636 -50.140723 47.273127
5589 1 1.702528 -47.912246 47.273127
5590 1 -2.158669 -45.683770 47.273127
5591 1 1.700173 -43.455293 47.273127
5592 1 -2.160213 -41.226817 47.273127
5593 1 1.699594 -38.998340 47.273127
5594 1 -2.159650 -36.769863 47.273127
5595 1 1.701505 -34.541387 47.273127
5596 1 -2.156155 -32.312910 47.273127
5597 1 1.706854 -30.084434 47.273127
5598 1 -2.148645 -27.855957 47.273127
5599 1 1.716868 -25.627481 47.273127
5600 1 -2.135743 -23.399004 47.273127
5601 1 1.733073 -21.170527 47.273127
5602 1 -2.115799 -18.942051 47.273127
5603 1 1.757198 -16.713574 47.273127
5604 1 -2.087084 -14.485098 47.273127
5605 1 1.790831 -12.256621 47.273127
5606 1 -2.048345 -10.028145 47.273127
5607 1 1.834639 -7.799668 47.273127
5608 1 -1.999809 -5.571191 47.273127
5609 1 1.887204 -3.342715 47.273127
5610 1 -1.944290 -1.114238 47.273127
5611 1 1.944290 1.114238 47.273127
5612 1 -1.887204 3.342715 47.273127
5613 1 1.999809 5.571191 47.273127
5614 1 -1.834639 7.799668 47.273127
5615 1 2.048345 10.028145 47.273127
5616 1 -1.790831 12.256621 47.273127
5617 1 2.087084 14.485098 47.273127
5618 1 -1.757198 16.713574 47.273127
5619 1 2.115799 18.942051 47.273127
5620 1 -1.733073 21.170527 47.273127
5621 1 2.135743 23.399004 47.273127
5622 1 -1.716868 25.627481 47.273127
5623 1 2.148645 27.855957 47.273127
5624 1 -1.706854 30.084434 47.273127
5625 1 2.156155 32.312910 47.273127
5626 1 -1.701505 34.541387 47.273127
5627 1 2.159650 36.769863 47.273127
5628 1 -1.699594 38.998340 47.273127
5629 1 2.160213 41.226817 47.273127
5630 1 -1.700173 43.455293 47.273127
5631 1 2.158669 45.683770 47.273127
5632 1 -1.702528 47.912246 47.273127
5633 1 2.155636 50.140723 47.273127
5634 1 -1.706124 52.369199 47.273127
5635 1 2.151575 54.597676 47.273127
5636 1 -1.710566 56.826153 47.273127
5637 1 2.146826 59.054629 47.273127
5638 1 -1.715560 61.283106 47.273127
5639 1 2.141640 63.511582 47.273127
5640 1 -1.720891 65.740059 47.273127
5641 1 0.439320 -64.997233 49.374155
5642 1 1.723601 -62.768757 49.374155
5643 1 0.434750 -60.540280 49.374155
5644 1 1.719237 -58.311804 49.374155
5645 1 0.430641 -56.083327 49.374155
5646 1 1.715441 -53.854850 49.374155
5647 1 0.427226 -51.626374 49.374155
5648 1 1.712484 -49.397897 49.374155
5649 1 0.424817 -47.169421 49.374155
5650 1 1.710725 -44.940944 49.374155
5651 1 0.423825 -42.712468 49.374155
5652 1 1.710636 -40.483991 49.374155
5653 1 0.424792 -38.255514 49.374155
5654 1 1.712835 -36.027038 49.374155
5655 1 0.428424 -33.798561 49.374155
5656 1 1.718124 -31.570085 49.374155
5657 1 0.435622 -29.341608 49.374155
5658 1 1.727509 -27.113132 49.374155
5659 1 0.447499 -24.884655 49.374155
5660 1 1.742204 -22.656178 49.374155
5661 1 0.465350 -20.427702 49.374155
5662 1 1.763547 -18.199225 49.374155
5663 1 0.490496 -15.970749 49.374155
5664 1 1.792750 -13.742272 49.374155
5665 1 0.523910 -11.513796 49.374155
5666 1 1.830381 -9.285319 49.374155
5667 1 0.565563 -7.056842 49.374155
5668 1 1.875616 -4.828366 49.374155
5669 1 0.613676 -2.599889 49.374155
5670 1 1.925662 -0.371413 49.374155
5671 1 0.664526 1.857064 49.374155
5672 1 1.976107 4.085540 49.374155
5673 1 0.713400 6.314017 49.374155
5674 1 2.022393 8.542494 49.374155
5675 1 0.756309 10.770970 49.374155
5676 1 2.061397 12.999447 49.374155
5677 1 0.791137 15.227923 49.374155
5678 1 2.091993 17.456400 49.374155
5679 1 0.817611 19.684876 49.374155
5680 1 2.114571 21.913353 49.374155
5681 1 0.836589 24.141830 49.374155
5682 1 2.130280 26.370306 49.374155
5683 1 0.849368 28.598783 49.374155
5684 1 2.140461 30.827259 49.374155
5685 1 0.857263 33.055736 49.374155
5686 1 2.146357 35.284212 49.374155
5687 1 0.861421 37.512689 49.374155
5688 1 2.149011 39.741165 49.374155
5689 1 0.862778 41.969642 49.374155
5690 1 2.149255 44.198119 49.374155
5691 1 0.862071 46.426595 49.374155
5692 1 2.147738 48.655072 49.374155
5693 1 0.859867 50.883548 49.374155
5694 1 2.144953 53.112025 49.374155
5695 1 0.856595 55.340501 49.374155
5696 1 2.141276 57.568978 49.374155
5697 1 0.852584 59.797455 49.374155
5698 1 2.136991 62.025931 49.374155
5699 1 0.848077 64.254408 49.374155
5700 1 2.132309 66.482884 49.374155
5701 1 -2.133903 -64.997233 49.374155
5702 1 -0.849622 -62.768757 49.374155
5703 1 -2.138473 -60.540280 49.374155
5704 1 -0.853986 -58.311804 49.374155
5705 1 -2.142582 -56.083327 49.374155
5706 1 -0.857782 -53.854850 49.374155
5707 1 -2.145997 -51.626374 49.374155
5708 1 -0.860739 -49.397897 49.374155
5709 1 -2.148406 -47.169421 49.374155
5710 1 -0.862498 -44.940944 49.374155
5711 1 -2.149398 -42.712468 49.374155
5712 1 -0.862588 -40.483991 49.374155
5713 1 -2.148431 -38.255514 49.374155
5714 1 -0.860388 -36.027038 49.374155
5715 1 -2.144799 -33.798561 49.374155
5716 1 -0.855099 -31.570085 49.374155
5717 1 -2.137601 -29.341608 49.374155
5718 1 -0.845714 -27.113132 49.374155
5719 1 -2.125724 -24.884655 49.374155
5720 1 -0.831019 -22.656178 49.374155
5721 1 -2.107873 -20.427702 49.374155
5722 1 -0.809676 -18.199225 49.374155
5723 1 -2.082727 -15.970749 49.374155
5724 1 -0.780473 -13.742272 49.374155
5725 1 -2.049313 -11.513796 49.374155
5726 1 -0.742842 -9.285319 49.374155
5727 1 -2.007660 -7.056842 49.374155
5728 1 -0.697607 -4.828366 49.374155
5729 1 -1.959547 -2.599889 49.374155
5730 1 -0.647561 -0.371413 49.374155
5731 1 -1.908697 1.857064 49.374155
5732 1 -0.597116 4.085540 49.374155
5733 1 -1.859823 6.314017 49.374155
5734 1 -0.550830 8.542494 49.374155
5735 1 -1.816915 10.770970 49.374155
5736 1 -0.511826 12.999447 49.374155
5737 1 -1.782086 15.227923 49.374155
5738 1 -0.481230 17.456400 49.374155
5739 1 -1.755613 19.684876 49.374155
5740 1 -0.458652 21.913353 49.374155
5741 1 -1.736634 24.141830 49.374155
5742 1 -0.442943 26.370306 49.374155
5743 1 -1.723855 28.598783 49.374155
5744 1 -0.432762 30.827259 49.374155
5745 1 -1.715960 33.055736 49.374155
5746 1 -0.426866 35.284212 49.374155
5747 1 -1.711803 37.512689 49.374155
5748 1 -0.424212 39.741165 49.374155
5749 1 -1.710445 41.969642 49.374155
5750 1 -0.423968 44.198119 49.374155
5751 1 -1.711152 46.426595 49.374155
5752 1 -0.425485 48.655072 49.374155
5753 1 -1.713357 50.883548 49.374155
5754 1 -0.428270 53.112025 49.374155
5755 1 -1.716628 55.340501 49.374155
5756 1 -0.431947 57.568978 49.374155
5757 1 -1.720640 59.797455 49.374155
5758 1 -0.436232 62.025931 49.374155
5759 1 -1.725146 64.254408 49.374155
5760 1 -0.440914 66.482884 49.374155
